*SPEF "ieee 1481-1999"
*DESIGN "systolic_array_2x2"
*DATE "11:11:11 Fri 11 11, 1111"
*VENDOR "OpenRCX"
*PROGRAM "Parallel Extraction"
*VERSION "1.0"
*DESIGN_FLOW "NAME_SCOPE LOCAL" "PIN_CAP NONE"
*DIVIDER /
*DELIMITER :
*BUS_DELIMITER []
*T_UNIT 1 NS
*C_UNIT 1 PF
*R_UNIT 1 OHM
*L_UNIT 1 HENRY

*NAME_MAP
*3 act_row0_in[0]
*4 act_row0_in[10]
*5 act_row0_in[11]
*6 act_row0_in[12]
*7 act_row0_in[13]
*8 act_row0_in[14]
*9 act_row0_in[15]
*10 act_row0_in[1]
*11 act_row0_in[2]
*12 act_row0_in[3]
*13 act_row0_in[4]
*14 act_row0_in[5]
*15 act_row0_in[6]
*16 act_row0_in[7]
*17 act_row0_in[8]
*18 act_row0_in[9]
*19 act_row1_in[0]
*20 act_row1_in[10]
*21 act_row1_in[11]
*22 act_row1_in[12]
*23 act_row1_in[13]
*24 act_row1_in[14]
*25 act_row1_in[15]
*26 act_row1_in[1]
*27 act_row1_in[2]
*28 act_row1_in[3]
*29 act_row1_in[4]
*30 act_row1_in[5]
*31 act_row1_in[6]
*32 act_row1_in[7]
*33 act_row1_in[8]
*34 act_row1_in[9]
*35 clk
*36 load_weight
*37 psum_col0_in[0]
*38 psum_col0_in[10]
*39 psum_col0_in[11]
*40 psum_col0_in[12]
*41 psum_col0_in[13]
*42 psum_col0_in[14]
*43 psum_col0_in[15]
*44 psum_col0_in[16]
*45 psum_col0_in[17]
*46 psum_col0_in[18]
*47 psum_col0_in[19]
*48 psum_col0_in[1]
*49 psum_col0_in[20]
*50 psum_col0_in[21]
*51 psum_col0_in[22]
*52 psum_col0_in[23]
*53 psum_col0_in[24]
*54 psum_col0_in[25]
*55 psum_col0_in[26]
*56 psum_col0_in[27]
*57 psum_col0_in[28]
*58 psum_col0_in[29]
*59 psum_col0_in[2]
*60 psum_col0_in[30]
*61 psum_col0_in[31]
*62 psum_col0_in[3]
*63 psum_col0_in[4]
*64 psum_col0_in[5]
*65 psum_col0_in[6]
*66 psum_col0_in[7]
*67 psum_col0_in[8]
*68 psum_col0_in[9]
*69 psum_col0_out[0]
*70 psum_col0_out[10]
*71 psum_col0_out[11]
*72 psum_col0_out[12]
*73 psum_col0_out[13]
*74 psum_col0_out[14]
*75 psum_col0_out[15]
*76 psum_col0_out[16]
*77 psum_col0_out[17]
*78 psum_col0_out[18]
*79 psum_col0_out[19]
*80 psum_col0_out[1]
*81 psum_col0_out[20]
*82 psum_col0_out[21]
*83 psum_col0_out[22]
*84 psum_col0_out[23]
*85 psum_col0_out[24]
*86 psum_col0_out[25]
*87 psum_col0_out[26]
*88 psum_col0_out[27]
*89 psum_col0_out[28]
*90 psum_col0_out[29]
*91 psum_col0_out[2]
*92 psum_col0_out[30]
*93 psum_col0_out[31]
*94 psum_col0_out[3]
*95 psum_col0_out[4]
*96 psum_col0_out[5]
*97 psum_col0_out[6]
*98 psum_col0_out[7]
*99 psum_col0_out[8]
*100 psum_col0_out[9]
*101 psum_col1_in[0]
*102 psum_col1_in[10]
*103 psum_col1_in[11]
*104 psum_col1_in[12]
*105 psum_col1_in[13]
*106 psum_col1_in[14]
*107 psum_col1_in[15]
*108 psum_col1_in[16]
*109 psum_col1_in[17]
*110 psum_col1_in[18]
*111 psum_col1_in[19]
*112 psum_col1_in[1]
*113 psum_col1_in[20]
*114 psum_col1_in[21]
*115 psum_col1_in[22]
*116 psum_col1_in[23]
*117 psum_col1_in[24]
*118 psum_col1_in[25]
*119 psum_col1_in[26]
*120 psum_col1_in[27]
*121 psum_col1_in[28]
*122 psum_col1_in[29]
*123 psum_col1_in[2]
*124 psum_col1_in[30]
*125 psum_col1_in[31]
*126 psum_col1_in[3]
*127 psum_col1_in[4]
*128 psum_col1_in[5]
*129 psum_col1_in[6]
*130 psum_col1_in[7]
*131 psum_col1_in[8]
*132 psum_col1_in[9]
*133 psum_col1_out[0]
*134 psum_col1_out[10]
*135 psum_col1_out[11]
*136 psum_col1_out[12]
*137 psum_col1_out[13]
*138 psum_col1_out[14]
*139 psum_col1_out[15]
*140 psum_col1_out[16]
*141 psum_col1_out[17]
*142 psum_col1_out[18]
*143 psum_col1_out[19]
*144 psum_col1_out[1]
*145 psum_col1_out[20]
*146 psum_col1_out[21]
*147 psum_col1_out[22]
*148 psum_col1_out[23]
*149 psum_col1_out[24]
*150 psum_col1_out[25]
*151 psum_col1_out[26]
*152 psum_col1_out[27]
*153 psum_col1_out[28]
*154 psum_col1_out[29]
*155 psum_col1_out[2]
*156 psum_col1_out[30]
*157 psum_col1_out[31]
*158 psum_col1_out[3]
*159 psum_col1_out[4]
*160 psum_col1_out[5]
*161 psum_col1_out[6]
*162 psum_col1_out[7]
*163 psum_col1_out[8]
*164 psum_col1_out[9]
*165 rst_n
*166 valid_row0_in
*167 valid_row0_out
*168 valid_row1_in
*169 valid_row1_out
*170 w00[0]
*171 w00[10]
*172 w00[11]
*173 w00[12]
*174 w00[13]
*175 w00[14]
*176 w00[15]
*177 w00[1]
*178 w00[2]
*179 w00[3]
*180 w00[4]
*181 w00[5]
*182 w00[6]
*183 w00[7]
*184 w00[8]
*185 w00[9]
*186 w01[0]
*187 w01[10]
*188 w01[11]
*189 w01[12]
*190 w01[13]
*191 w01[14]
*192 w01[15]
*193 w01[1]
*194 w01[2]
*195 w01[3]
*196 w01[4]
*197 w01[5]
*198 w01[6]
*199 w01[7]
*200 w01[8]
*201 w01[9]
*202 w10[0]
*203 w10[10]
*204 w10[11]
*205 w10[12]
*206 w10[13]
*207 w10[14]
*208 w10[15]
*209 w10[1]
*210 w10[2]
*211 w10[3]
*212 w10[4]
*213 w10[5]
*214 w10[6]
*215 w10[7]
*216 w10[8]
*217 w10[9]
*218 w11[0]
*219 w11[10]
*220 w11[11]
*221 w11[12]
*222 w11[13]
*223 w11[14]
*224 w11[15]
*225 w11[1]
*226 w11[2]
*227 w11[3]
*228 w11[4]
*229 w11[5]
*230 w11[6]
*231 w11[7]
*232 w11[8]
*233 w11[9]
*234 act_00_out_01_in\[0\]
*235 act_00_out_01_in\[10\]
*236 act_00_out_01_in\[11\]
*237 act_00_out_01_in\[12\]
*238 act_00_out_01_in\[13\]
*239 act_00_out_01_in\[14\]
*240 act_00_out_01_in\[15\]
*241 act_00_out_01_in\[1\]
*242 act_00_out_01_in\[2\]
*243 act_00_out_01_in\[3\]
*244 act_00_out_01_in\[4\]
*245 act_00_out_01_in\[5\]
*246 act_00_out_01_in\[6\]
*247 act_00_out_01_in\[7\]
*248 act_00_out_01_in\[8\]
*249 act_00_out_01_in\[9\]
*250 act_01_out\[0\]
*251 act_01_out\[10\]
*252 act_01_out\[11\]
*253 act_01_out\[12\]
*254 act_01_out\[13\]
*255 act_01_out\[14\]
*256 act_01_out\[15\]
*257 act_01_out\[1\]
*258 act_01_out\[2\]
*259 act_01_out\[3\]
*260 act_01_out\[4\]
*261 act_01_out\[5\]
*262 act_01_out\[6\]
*263 act_01_out\[7\]
*264 act_01_out\[8\]
*265 act_01_out\[9\]
*266 act_10_out_11_in\[0\]
*267 act_10_out_11_in\[10\]
*268 act_10_out_11_in\[11\]
*269 act_10_out_11_in\[12\]
*270 act_10_out_11_in\[13\]
*271 act_10_out_11_in\[14\]
*272 act_10_out_11_in\[15\]
*273 act_10_out_11_in\[1\]
*274 act_10_out_11_in\[2\]
*275 act_10_out_11_in\[3\]
*276 act_10_out_11_in\[4\]
*277 act_10_out_11_in\[5\]
*278 act_10_out_11_in\[6\]
*279 act_10_out_11_in\[7\]
*280 act_10_out_11_in\[8\]
*281 act_10_out_11_in\[9\]
*282 act_11_out\[0\]
*283 act_11_out\[10\]
*284 act_11_out\[11\]
*285 act_11_out\[12\]
*286 act_11_out\[13\]
*287 act_11_out\[14\]
*288 act_11_out\[15\]
*289 act_11_out\[1\]
*290 act_11_out\[2\]
*291 act_11_out\[3\]
*292 act_11_out\[4\]
*293 act_11_out\[5\]
*294 act_11_out\[6\]
*295 act_11_out\[7\]
*296 act_11_out\[8\]
*297 act_11_out\[9\]
*298 clknet_0_clk
*299 clknet_1_0__leaf_clk
*300 clknet_1_1__leaf_clk
*301 net1
*302 net10
*303 net100
*304 net101
*305 net102
*306 net103
*307 net104
*308 net105
*309 net106
*310 net107
*311 net108
*312 net109
*313 net11
*314 net110
*315 net111
*316 net112
*317 net113
*318 net114
*319 net115
*320 net116
*321 net117
*322 net118
*323 net119
*324 net12
*325 net120
*326 net121
*327 net122
*328 net123
*329 net124
*330 net125
*331 net126
*332 net127
*333 net128
*334 net129
*335 net13
*336 net130
*337 net131
*338 net132
*339 net133
*340 net134
*341 net135
*342 net136
*343 net137
*344 net138
*345 net139
*346 net14
*347 net140
*348 net141
*349 net142
*350 net143
*351 net144
*352 net145
*353 net146
*354 net147
*355 net148
*356 net149
*357 net15
*358 net150
*359 net151
*360 net152
*361 net153
*362 net154
*363 net155
*364 net156
*365 net157
*366 net158
*367 net159
*368 net16
*369 net160
*370 net161
*371 net162
*372 net163
*373 net164
*374 net165
*375 net166
*376 net167
*377 net168
*378 net169
*379 net17
*380 net170
*381 net171
*382 net172
*383 net173
*384 net174
*385 net175
*386 net176
*387 net177
*388 net178
*389 net179
*390 net18
*391 net180
*392 net181
*393 net182
*394 net183
*395 net184
*396 net185
*397 net186
*398 net187
*399 net188
*400 net189
*401 net19
*402 net190
*403 net191
*404 net192
*405 net193
*406 net194
*407 net195
*408 net196
*409 net197
*410 net198
*411 net199
*412 net2
*413 net20
*414 net200
*415 net201
*416 net202
*417 net203
*418 net204
*419 net205
*420 net206
*421 net207
*422 net208
*423 net209
*424 net21
*425 net210
*426 net211
*427 net212
*428 net213
*429 net214
*430 net215
*431 net216
*432 net217
*433 net218
*434 net219
*435 net22
*436 net220
*437 net221
*438 net222
*439 net223
*440 net224
*441 net225
*442 net226
*443 net227
*444 net228
*445 net229
*446 net23
*447 net230
*448 net24
*449 net25
*450 net26
*451 net27
*452 net28
*453 net29
*454 net3
*455 net30
*456 net31
*457 net32
*458 net33
*459 net34
*460 net35
*461 net36
*462 net37
*463 net38
*464 net39
*465 net4
*466 net40
*467 net41
*468 net42
*469 net43
*470 net44
*471 net45
*472 net46
*473 net47
*474 net48
*475 net49
*476 net5
*477 net50
*478 net51
*479 net52
*480 net53
*481 net54
*482 net55
*483 net56
*484 net57
*485 net58
*486 net59
*487 net6
*488 net60
*489 net61
*490 net62
*491 net63
*492 net64
*493 net65
*494 net66
*495 net67
*496 net68
*497 net69
*498 net7
*499 net70
*500 net71
*501 net72
*502 net73
*503 net74
*504 net75
*505 net76
*506 net77
*507 net78
*508 net79
*509 net8
*510 net80
*511 net81
*512 net82
*513 net83
*514 net84
*515 net85
*516 net86
*517 net87
*518 net88
*519 net89
*520 net9
*521 net90
*522 net91
*523 net92
*524 net93
*525 net94
*526 net95
*527 net96
*528 net97
*529 net98
*530 net99
*531 psum_00_out_10_in\[0\]
*532 psum_00_out_10_in\[10\]
*533 psum_00_out_10_in\[11\]
*534 psum_00_out_10_in\[12\]
*535 psum_00_out_10_in\[13\]
*536 psum_00_out_10_in\[14\]
*537 psum_00_out_10_in\[15\]
*538 psum_00_out_10_in\[16\]
*539 psum_00_out_10_in\[17\]
*540 psum_00_out_10_in\[18\]
*541 psum_00_out_10_in\[19\]
*542 psum_00_out_10_in\[1\]
*543 psum_00_out_10_in\[20\]
*544 psum_00_out_10_in\[21\]
*545 psum_00_out_10_in\[22\]
*546 psum_00_out_10_in\[23\]
*547 psum_00_out_10_in\[24\]
*548 psum_00_out_10_in\[25\]
*549 psum_00_out_10_in\[26\]
*550 psum_00_out_10_in\[27\]
*551 psum_00_out_10_in\[28\]
*552 psum_00_out_10_in\[29\]
*553 psum_00_out_10_in\[2\]
*554 psum_00_out_10_in\[30\]
*555 psum_00_out_10_in\[31\]
*556 psum_00_out_10_in\[3\]
*557 psum_00_out_10_in\[4\]
*558 psum_00_out_10_in\[5\]
*559 psum_00_out_10_in\[6\]
*560 psum_00_out_10_in\[7\]
*561 psum_00_out_10_in\[8\]
*562 psum_00_out_10_in\[9\]
*563 psum_01_out_11_in\[0\]
*564 psum_01_out_11_in\[10\]
*565 psum_01_out_11_in\[11\]
*566 psum_01_out_11_in\[12\]
*567 psum_01_out_11_in\[13\]
*568 psum_01_out_11_in\[14\]
*569 psum_01_out_11_in\[15\]
*570 psum_01_out_11_in\[16\]
*571 psum_01_out_11_in\[17\]
*572 psum_01_out_11_in\[18\]
*573 psum_01_out_11_in\[19\]
*574 psum_01_out_11_in\[1\]
*575 psum_01_out_11_in\[20\]
*576 psum_01_out_11_in\[21\]
*577 psum_01_out_11_in\[22\]
*578 psum_01_out_11_in\[23\]
*579 psum_01_out_11_in\[24\]
*580 psum_01_out_11_in\[25\]
*581 psum_01_out_11_in\[26\]
*582 psum_01_out_11_in\[27\]
*583 psum_01_out_11_in\[28\]
*584 psum_01_out_11_in\[29\]
*585 psum_01_out_11_in\[2\]
*586 psum_01_out_11_in\[30\]
*587 psum_01_out_11_in\[31\]
*588 psum_01_out_11_in\[3\]
*589 psum_01_out_11_in\[4\]
*590 psum_01_out_11_in\[5\]
*591 psum_01_out_11_in\[6\]
*592 psum_01_out_11_in\[7\]
*593 psum_01_out_11_in\[8\]
*594 psum_01_out_11_in\[9\]
*595 valid_00_out_01_in
*596 valid_10_out_11_in
*597 ANTENNA_clkbuf_0_clk_A
*598 ANTENNA_clkbuf_1_0__f_clk_A
*599 ANTENNA_clkbuf_1_1__f_clk_A
*600 ANTENNA_input100_A
*601 ANTENNA_input101_A
*602 ANTENNA_input102_A
*603 ANTENNA_input103_A
*604 ANTENNA_input104_A
*605 ANTENNA_input105_A
*606 ANTENNA_input106_A
*607 ANTENNA_input107_A
*608 ANTENNA_input108_A
*609 ANTENNA_input109_A
*610 ANTENNA_input10_A
*611 ANTENNA_input110_A
*612 ANTENNA_input111_A
*613 ANTENNA_input112_A
*614 ANTENNA_input113_A
*615 ANTENNA_input114_A
*616 ANTENNA_input115_A
*617 ANTENNA_input116_A
*618 ANTENNA_input117_A
*619 ANTENNA_input118_A
*620 ANTENNA_input119_A
*621 ANTENNA_input11_A
*622 ANTENNA_input120_A
*623 ANTENNA_input121_A
*624 ANTENNA_input122_A
*625 ANTENNA_input123_A
*626 ANTENNA_input124_A
*627 ANTENNA_input125_A
*628 ANTENNA_input126_A
*629 ANTENNA_input127_A
*630 ANTENNA_input128_A
*631 ANTENNA_input129_A
*632 ANTENNA_input12_A
*633 ANTENNA_input130_A
*634 ANTENNA_input131_A
*635 ANTENNA_input132_A
*636 ANTENNA_input133_A
*637 ANTENNA_input134_A
*638 ANTENNA_input135_A
*639 ANTENNA_input136_A
*640 ANTENNA_input137_A
*641 ANTENNA_input138_A
*642 ANTENNA_input139_A
*643 ANTENNA_input13_A
*644 ANTENNA_input140_A
*645 ANTENNA_input141_A
*646 ANTENNA_input142_A
*647 ANTENNA_input143_A
*648 ANTENNA_input144_A
*649 ANTENNA_input145_A
*650 ANTENNA_input146_A
*651 ANTENNA_input147_A
*652 ANTENNA_input148_A
*653 ANTENNA_input149_A
*654 ANTENNA_input14_A
*655 ANTENNA_input150_A
*656 ANTENNA_input151_A
*657 ANTENNA_input152_A
*658 ANTENNA_input153_A
*659 ANTENNA_input154_A
*660 ANTENNA_input155_A
*661 ANTENNA_input156_A
*662 ANTENNA_input157_A
*663 ANTENNA_input158_A
*664 ANTENNA_input159_A
*665 ANTENNA_input15_A
*666 ANTENNA_input160_A
*667 ANTENNA_input161_A
*668 ANTENNA_input162_A
*669 ANTENNA_input163_A
*670 ANTENNA_input164_A
*671 ANTENNA_input16_A
*672 ANTENNA_input17_A
*673 ANTENNA_input18_A
*674 ANTENNA_input19_A
*675 ANTENNA_input1_A
*676 ANTENNA_input20_A
*677 ANTENNA_input21_A
*678 ANTENNA_input22_A
*679 ANTENNA_input23_A
*680 ANTENNA_input24_A
*681 ANTENNA_input25_A
*682 ANTENNA_input26_A
*683 ANTENNA_input27_A
*684 ANTENNA_input28_A
*685 ANTENNA_input29_A
*686 ANTENNA_input2_A
*687 ANTENNA_input30_A
*688 ANTENNA_input31_A
*689 ANTENNA_input32_A
*690 ANTENNA_input33_A
*691 ANTENNA_input34_A
*692 ANTENNA_input35_A
*693 ANTENNA_input36_A
*694 ANTENNA_input37_A
*695 ANTENNA_input38_A
*696 ANTENNA_input39_A
*697 ANTENNA_input3_A
*698 ANTENNA_input40_A
*699 ANTENNA_input41_A
*700 ANTENNA_input42_A
*701 ANTENNA_input43_A
*702 ANTENNA_input44_A
*703 ANTENNA_input45_A
*704 ANTENNA_input46_A
*705 ANTENNA_input47_A
*706 ANTENNA_input48_A
*707 ANTENNA_input49_A
*708 ANTENNA_input4_A
*709 ANTENNA_input50_A
*710 ANTENNA_input51_A
*711 ANTENNA_input52_A
*712 ANTENNA_input53_A
*713 ANTENNA_input54_A
*714 ANTENNA_input55_A
*715 ANTENNA_input56_A
*716 ANTENNA_input57_A
*717 ANTENNA_input58_A
*718 ANTENNA_input59_A
*719 ANTENNA_input5_A
*720 ANTENNA_input60_A
*721 ANTENNA_input61_A
*722 ANTENNA_input62_A
*723 ANTENNA_input63_A
*724 ANTENNA_input64_A
*725 ANTENNA_input65_A
*726 ANTENNA_input66_A
*727 ANTENNA_input67_A
*728 ANTENNA_input68_A
*729 ANTENNA_input69_A
*730 ANTENNA_input6_A
*731 ANTENNA_input70_A
*732 ANTENNA_input71_A
*733 ANTENNA_input72_A
*734 ANTENNA_input73_A
*735 ANTENNA_input74_A
*736 ANTENNA_input75_A
*737 ANTENNA_input76_A
*738 ANTENNA_input77_A
*739 ANTENNA_input78_A
*740 ANTENNA_input79_A
*741 ANTENNA_input7_A
*742 ANTENNA_input80_A
*743 ANTENNA_input81_A
*744 ANTENNA_input82_A
*745 ANTENNA_input83_A
*746 ANTENNA_input84_A
*747 ANTENNA_input85_A
*748 ANTENNA_input86_A
*749 ANTENNA_input87_A
*750 ANTENNA_input88_A
*751 ANTENNA_input89_A
*752 ANTENNA_input8_A
*753 ANTENNA_input90_A
*754 ANTENNA_input91_A
*755 ANTENNA_input92_A
*756 ANTENNA_input93_A
*757 ANTENNA_input94_A
*758 ANTENNA_input95_A
*759 ANTENNA_input96_A
*760 ANTENNA_input97_A
*761 ANTENNA_input98_A
*762 ANTENNA_input99_A
*763 ANTENNA_input9_A
*764 ANTENNA_output207_A
*765 ANTENNA_output209_A
*766 ANTENNA_output210_A
*767 ANTENNA_output211_A
*768 ANTENNA_output212_A
*769 ANTENNA_output213_A
*770 ANTENNA_output214_A
*771 ANTENNA_output215_A
*772 ANTENNA_output216_A
*773 ANTENNA_output217_A
*774 ANTENNA_output218_A
*775 ANTENNA_output220_A
*776 ANTENNA_output221_A
*777 ANTENNA_output229_A
*778 ANTENNA_output230_A
*779 ANTENNA_u_pe00_act_in\[0\]
*780 ANTENNA_u_pe00_act_in\[10\]
*781 ANTENNA_u_pe00_act_in\[11\]
*782 ANTENNA_u_pe00_act_in\[12\]
*783 ANTENNA_u_pe00_act_in\[13\]
*784 ANTENNA_u_pe00_act_in\[14\]
*785 ANTENNA_u_pe00_act_in\[15\]
*786 ANTENNA_u_pe00_act_in\[1\]
*787 ANTENNA_u_pe00_act_in\[2\]
*788 ANTENNA_u_pe00_act_in\[3\]
*789 ANTENNA_u_pe00_act_in\[4\]
*790 ANTENNA_u_pe00_act_in\[5\]
*791 ANTENNA_u_pe00_act_in\[6\]
*792 ANTENNA_u_pe00_act_in\[7\]
*793 ANTENNA_u_pe00_act_in\[8\]
*794 ANTENNA_u_pe00_act_in\[9\]
*795 ANTENNA_u_pe00_clk
*796 ANTENNA_u_pe00_load_weight
*797 ANTENNA_u_pe00_psum_in\[0\]
*798 ANTENNA_u_pe00_psum_in\[1\]
*799 ANTENNA_u_pe00_psum_in\[26\]
*800 ANTENNA_u_pe00_psum_in\[27\]
*801 ANTENNA_u_pe00_psum_in\[28\]
*802 ANTENNA_u_pe00_psum_in\[29\]
*803 ANTENNA_u_pe00_psum_in\[2\]
*804 ANTENNA_u_pe00_psum_in\[30\]
*805 ANTENNA_u_pe00_psum_in\[31\]
*806 ANTENNA_u_pe00_psum_in\[3\]
*807 ANTENNA_u_pe00_psum_in\[4\]
*808 ANTENNA_u_pe00_rst_n
*809 ANTENNA_u_pe00_valid_in
*810 ANTENNA_u_pe01_act_in\[0\]
*811 ANTENNA_u_pe01_act_in\[1\]
*812 ANTENNA_u_pe01_act_in\[2\]
*813 ANTENNA_u_pe01_act_in\[3\]
*814 ANTENNA_u_pe01_act_in\[4\]
*815 ANTENNA_u_pe01_act_in\[5\]
*816 ANTENNA_u_pe01_act_in\[6\]
*817 ANTENNA_u_pe01_act_in\[7\]
*818 ANTENNA_u_pe01_act_in\[8\]
*819 ANTENNA_u_pe01_act_in\[9\]
*820 ANTENNA_u_pe01_clk
*821 ANTENNA_u_pe01_load_weight
*822 ANTENNA_u_pe01_psum_in\[12\]
*823 ANTENNA_u_pe01_psum_in\[13\]
*824 ANTENNA_u_pe01_psum_in\[14\]
*825 ANTENNA_u_pe01_psum_in\[15\]
*826 ANTENNA_u_pe01_psum_in\[16\]
*827 ANTENNA_u_pe01_psum_in\[17\]
*828 ANTENNA_u_pe01_psum_in\[18\]
*829 ANTENNA_u_pe01_psum_in\[19\]
*830 ANTENNA_u_pe01_psum_in\[20\]
*831 ANTENNA_u_pe01_psum_in\[21\]
*832 ANTENNA_u_pe01_psum_in\[22\]
*833 ANTENNA_u_pe01_psum_in\[23\]
*834 ANTENNA_u_pe01_psum_in\[24\]
*835 ANTENNA_u_pe01_psum_in\[25\]
*836 ANTENNA_u_pe01_psum_in\[26\]
*837 ANTENNA_u_pe01_psum_in\[27\]
*838 ANTENNA_u_pe01_psum_in\[28\]
*839 ANTENNA_u_pe01_psum_in\[29\]
*840 ANTENNA_u_pe01_psum_in\[30\]
*841 ANTENNA_u_pe01_psum_in\[31\]
*842 ANTENNA_u_pe01_rst_n
*843 ANTENNA_u_pe01_valid_in
*844 ANTENNA_u_pe01_weight_in\[0\]
*845 ANTENNA_u_pe01_weight_in\[10\]
*846 ANTENNA_u_pe01_weight_in\[11\]
*847 ANTENNA_u_pe01_weight_in\[12\]
*848 ANTENNA_u_pe01_weight_in\[13\]
*849 ANTENNA_u_pe01_weight_in\[14\]
*850 ANTENNA_u_pe01_weight_in\[15\]
*851 ANTENNA_u_pe01_weight_in\[1\]
*852 ANTENNA_u_pe01_weight_in\[2\]
*853 ANTENNA_u_pe01_weight_in\[3\]
*854 ANTENNA_u_pe01_weight_in\[4\]
*855 ANTENNA_u_pe01_weight_in\[5\]
*856 ANTENNA_u_pe01_weight_in\[6\]
*857 ANTENNA_u_pe01_weight_in\[7\]
*858 ANTENNA_u_pe01_weight_in\[8\]
*859 ANTENNA_u_pe01_weight_in\[9\]
*860 ANTENNA_u_pe10_act_in\[12\]
*861 ANTENNA_u_pe10_act_in\[13\]
*862 ANTENNA_u_pe10_act_in\[14\]
*863 ANTENNA_u_pe10_act_in\[15\]
*864 ANTENNA_u_pe10_clk
*865 ANTENNA_u_pe10_load_weight
*866 ANTENNA_u_pe10_rst_n
*867 ANTENNA_u_pe10_valid_in
*868 ANTENNA_u_pe10_weight_in\[0\]
*869 ANTENNA_u_pe10_weight_in\[10\]
*870 ANTENNA_u_pe10_weight_in\[11\]
*871 ANTENNA_u_pe10_weight_in\[12\]
*872 ANTENNA_u_pe10_weight_in\[13\]
*873 ANTENNA_u_pe10_weight_in\[14\]
*874 ANTENNA_u_pe10_weight_in\[15\]
*875 ANTENNA_u_pe10_weight_in\[1\]
*876 ANTENNA_u_pe10_weight_in\[2\]
*877 ANTENNA_u_pe10_weight_in\[3\]
*878 ANTENNA_u_pe10_weight_in\[4\]
*879 ANTENNA_u_pe10_weight_in\[5\]
*880 ANTENNA_u_pe10_weight_in\[6\]
*881 ANTENNA_u_pe10_weight_in\[7\]
*882 ANTENNA_u_pe10_weight_in\[8\]
*883 ANTENNA_u_pe10_weight_in\[9\]
*884 ANTENNA_u_pe11_act_in\[0\]
*885 ANTENNA_u_pe11_act_in\[1\]
*886 ANTENNA_u_pe11_act_in\[2\]
*887 ANTENNA_u_pe11_act_in\[3\]
*888 ANTENNA_u_pe11_act_in\[4\]
*889 ANTENNA_u_pe11_act_in\[5\]
*890 ANTENNA_u_pe11_act_in\[6\]
*891 ANTENNA_u_pe11_act_in\[7\]
*892 ANTENNA_u_pe11_act_in\[8\]
*893 ANTENNA_u_pe11_act_in\[9\]
*894 ANTENNA_u_pe11_clk
*895 ANTENNA_u_pe11_load_weight
*896 ANTENNA_u_pe11_rst_n
*897 ANTENNA_u_pe11_valid_in
*898 ANTENNA_u_pe11_weight_in\[0\]
*899 ANTENNA_u_pe11_weight_in\[10\]
*900 ANTENNA_u_pe11_weight_in\[11\]
*901 ANTENNA_u_pe11_weight_in\[12\]
*902 ANTENNA_u_pe11_weight_in\[13\]
*903 ANTENNA_u_pe11_weight_in\[14\]
*904 ANTENNA_u_pe11_weight_in\[15\]
*905 ANTENNA_u_pe11_weight_in\[1\]
*906 ANTENNA_u_pe11_weight_in\[2\]
*907 ANTENNA_u_pe11_weight_in\[3\]
*908 ANTENNA_u_pe11_weight_in\[4\]
*909 ANTENNA_u_pe11_weight_in\[5\]
*910 ANTENNA_u_pe11_weight_in\[6\]
*911 ANTENNA_u_pe11_weight_in\[7\]
*912 ANTENNA_u_pe11_weight_in\[8\]
*913 ANTENNA_u_pe11_weight_in\[9\]
*914 FILLER_0_0_1007
*915 FILLER_0_0_1009
*916 FILLER_0_0_1021
*917 FILLER_0_0_1033
*918 FILLER_0_0_1043
*919 FILLER_0_0_1055
*920 FILLER_0_0_1063
*921 FILLER_0_0_1071
*922 FILLER_0_0_1079
*923 FILLER_0_0_1087
*924 FILLER_0_0_109
*925 FILLER_0_0_1091
*926 FILLER_0_0_1093
*927 FILLER_0_0_1109
*928 FILLER_0_0_1117
*929 FILLER_0_0_1121
*930 FILLER_0_0_1131
*931 FILLER_0_0_1143
*932 FILLER_0_0_1155
*933 FILLER_0_0_1175
*934 FILLER_0_0_1177
*935 FILLER_0_0_119
*936 FILLER_0_0_1197
*937 FILLER_0_0_1203
*938 FILLER_0_0_1205
*939 FILLER_0_0_1219
*940 FILLER_0_0_1227
*941 FILLER_0_0_1233
*942 FILLER_0_0_1241
*943 FILLER_0_0_1253
*944 FILLER_0_0_1257
*945 FILLER_0_0_1267
*946 FILLER_0_0_1275
*947 FILLER_0_0_1285
*948 FILLER_0_0_1289
*949 FILLER_0_0_1297
*950 FILLER_0_0_1307
*951 FILLER_0_0_131
*952 FILLER_0_0_1315
*953 FILLER_0_0_1317
*954 FILLER_0_0_1329
*955 FILLER_0_0_139
*956 FILLER_0_0_147
*957 FILLER_0_0_15
*958 FILLER_0_0_155
*959 FILLER_0_0_163
*960 FILLER_0_0_167
*961 FILLER_0_0_169
*962 FILLER_0_0_177
*963 FILLER_0_0_185
*964 FILLER_0_0_193
*965 FILLER_0_0_197
*966 FILLER_0_0_207
*967 FILLER_0_0_219
*968 FILLER_0_0_223
*969 FILLER_0_0_231
*970 FILLER_0_0_243
*971 FILLER_0_0_251
*972 FILLER_0_0_253
*973 FILLER_0_0_265
*974 FILLER_0_0_27
*975 FILLER_0_0_273
*976 FILLER_0_0_279
*977 FILLER_0_0_281
*978 FILLER_0_0_295
*979 FILLER_0_0_307
*980 FILLER_0_0_309
*981 FILLER_0_0_317
*982 FILLER_0_0_329
*983 FILLER_0_0_335
*984 FILLER_0_0_343
*985 FILLER_0_0_35
*986 FILLER_0_0_361
*987 FILLER_0_0_365
*988 FILLER_0_0_383
*989 FILLER_0_0_391
*990 FILLER_0_0_393
*991 FILLER_0_0_405
*992 FILLER_0_0_417
*993 FILLER_0_0_427
*994 FILLER_0_0_439
*995 FILLER_0_0_447
*996 FILLER_0_0_455
*997 FILLER_0_0_463
*998 FILLER_0_0_471
*999 FILLER_0_0_475
*1000 FILLER_0_0_477
*1001 FILLER_0_0_485
*1002 FILLER_0_0_493
*1003 FILLER_0_0_501
*1004 FILLER_0_0_505
*1005 FILLER_0_0_515
*1006 FILLER_0_0_527
*1007 FILLER_0_0_53
*1008 FILLER_0_0_531
*1009 FILLER_0_0_539
*1010 FILLER_0_0_551
*1011 FILLER_0_0_559
*1012 FILLER_0_0_561
*1013 FILLER_0_0_57
*1014 FILLER_0_0_573
*1015 FILLER_0_0_581
*1016 FILLER_0_0_587
*1017 FILLER_0_0_589
*1018 FILLER_0_0_603
*1019 FILLER_0_0_615
*1020 FILLER_0_0_617
*1021 FILLER_0_0_625
*1022 FILLER_0_0_637
*1023 FILLER_0_0_643
*1024 FILLER_0_0_651
*1025 FILLER_0_0_669
*1026 FILLER_0_0_673
*1027 FILLER_0_0_691
*1028 FILLER_0_0_699
*1029 FILLER_0_0_701
*1030 FILLER_0_0_713
*1031 FILLER_0_0_725
*1032 FILLER_0_0_735
*1033 FILLER_0_0_747
*1034 FILLER_0_0_75
*1035 FILLER_0_0_755
*1036 FILLER_0_0_763
*1037 FILLER_0_0_771
*1038 FILLER_0_0_779
*1039 FILLER_0_0_783
*1040 FILLER_0_0_785
*1041 FILLER_0_0_793
*1042 FILLER_0_0_801
*1043 FILLER_0_0_809
*1044 FILLER_0_0_813
*1045 FILLER_0_0_823
*1046 FILLER_0_0_83
*1047 FILLER_0_0_835
*1048 FILLER_0_0_839
*1049 FILLER_0_0_847
*1050 FILLER_0_0_85
*1051 FILLER_0_0_859
*1052 FILLER_0_0_867
*1053 FILLER_0_0_869
*1054 FILLER_0_0_881
*1055 FILLER_0_0_889
*1056 FILLER_0_0_895
*1057 FILLER_0_0_897
*1058 FILLER_0_0_911
*1059 FILLER_0_0_923
*1060 FILLER_0_0_925
*1061 FILLER_0_0_933
*1062 FILLER_0_0_945
*1063 FILLER_0_0_951
*1064 FILLER_0_0_959
*1065 FILLER_0_0_97
*1066 FILLER_0_0_977
*1067 FILLER_0_0_981
*1068 FILLER_0_0_999
*1069 FILLER_0_100_1201
*1070 FILLER_0_100_1213
*1071 FILLER_0_100_1225
*1072 FILLER_0_100_1227
*1073 FILLER_0_100_1239
*1074 FILLER_0_100_1251
*1075 FILLER_0_100_1263
*1076 FILLER_0_100_1275
*1077 FILLER_0_100_1281
*1078 FILLER_0_100_1283
*1079 FILLER_0_100_1295
*1080 FILLER_0_100_1307
*1081 FILLER_0_100_1319
*1082 FILLER_0_100_1331
*1083 FILLER_0_100_1337
*1084 FILLER_0_100_1339
*1085 FILLER_0_100_1343
*1086 FILLER_0_100_15
*1087 FILLER_0_100_27
*1088 FILLER_0_100_29
*1089 FILLER_0_100_3
*1090 FILLER_0_100_41
*1091 FILLER_0_100_49
*1092 FILLER_0_100_593
*1093 FILLER_0_100_605
*1094 FILLER_0_100_617
*1095 FILLER_0_100_619
*1096 FILLER_0_100_631
*1097 FILLER_0_100_643
*1098 FILLER_0_100_655
*1099 FILLER_0_101_10
*1100 FILLER_0_101_1201
*1101 FILLER_0_101_1213
*1102 FILLER_0_101_1225
*1103 FILLER_0_101_1237
*1104 FILLER_0_101_1249
*1105 FILLER_0_101_1253
*1106 FILLER_0_101_1255
*1107 FILLER_0_101_1267
*1108 FILLER_0_101_1279
*1109 FILLER_0_101_1291
*1110 FILLER_0_101_1303
*1111 FILLER_0_101_1309
*1112 FILLER_0_101_1311
*1113 FILLER_0_101_1323
*1114 FILLER_0_101_1335
*1115 FILLER_0_101_22
*1116 FILLER_0_101_34
*1117 FILLER_0_101_46
*1118 FILLER_0_101_593
*1119 FILLER_0_101_6
*1120 FILLER_0_101_605
*1121 FILLER_0_101_617
*1122 FILLER_0_101_629
*1123 FILLER_0_101_641
*1124 FILLER_0_101_645
*1125 FILLER_0_101_647
*1126 FILLER_0_102_1201
*1127 FILLER_0_102_1213
*1128 FILLER_0_102_1225
*1129 FILLER_0_102_1227
*1130 FILLER_0_102_1239
*1131 FILLER_0_102_1251
*1132 FILLER_0_102_1263
*1133 FILLER_0_102_1275
*1134 FILLER_0_102_1281
*1135 FILLER_0_102_1283
*1136 FILLER_0_102_1295
*1137 FILLER_0_102_1307
*1138 FILLER_0_102_1319
*1139 FILLER_0_102_1331
*1140 FILLER_0_102_1337
*1141 FILLER_0_102_1339
*1142 FILLER_0_102_1343
*1143 FILLER_0_102_15
*1144 FILLER_0_102_27
*1145 FILLER_0_102_29
*1146 FILLER_0_102_3
*1147 FILLER_0_102_41
*1148 FILLER_0_102_49
*1149 FILLER_0_102_593
*1150 FILLER_0_102_605
*1151 FILLER_0_102_617
*1152 FILLER_0_102_619
*1153 FILLER_0_102_631
*1154 FILLER_0_102_643
*1155 FILLER_0_102_655
*1156 FILLER_0_103_1201
*1157 FILLER_0_103_1213
*1158 FILLER_0_103_1225
*1159 FILLER_0_103_1237
*1160 FILLER_0_103_1249
*1161 FILLER_0_103_1253
*1162 FILLER_0_103_1255
*1163 FILLER_0_103_1267
*1164 FILLER_0_103_1279
*1165 FILLER_0_103_1291
*1166 FILLER_0_103_1303
*1167 FILLER_0_103_1309
*1168 FILLER_0_103_1311
*1169 FILLER_0_103_1323
*1170 FILLER_0_103_1335
*1171 FILLER_0_103_1343
*1172 FILLER_0_103_15
*1173 FILLER_0_103_27
*1174 FILLER_0_103_3
*1175 FILLER_0_103_39
*1176 FILLER_0_103_47
*1177 FILLER_0_103_593
*1178 FILLER_0_103_605
*1179 FILLER_0_103_617
*1180 FILLER_0_103_629
*1181 FILLER_0_103_641
*1182 FILLER_0_103_645
*1183 FILLER_0_103_647
*1184 FILLER_0_104_1005
*1185 FILLER_0_104_1009
*1186 FILLER_0_104_1021
*1187 FILLER_0_104_1033
*1188 FILLER_0_104_1037
*1189 FILLER_0_104_1049
*1190 FILLER_0_104_1061
*1191 FILLER_0_104_1065
*1192 FILLER_0_104_1077
*1193 FILLER_0_104_1089
*1194 FILLER_0_104_109
*1195 FILLER_0_104_1093
*1196 FILLER_0_104_1105
*1197 FILLER_0_104_1117
*1198 FILLER_0_104_1121
*1199 FILLER_0_104_113
*1200 FILLER_0_104_1133
*1201 FILLER_0_104_1145
*1202 FILLER_0_104_1149
*1203 FILLER_0_104_1161
*1204 FILLER_0_104_1173
*1205 FILLER_0_104_1177
*1206 FILLER_0_104_1189
*1207 FILLER_0_104_1201
*1208 FILLER_0_104_1205
*1209 FILLER_0_104_1217
*1210 FILLER_0_104_1229
*1211 FILLER_0_104_1233
*1212 FILLER_0_104_1245
*1213 FILLER_0_104_125
*1214 FILLER_0_104_1257
*1215 FILLER_0_104_1261
*1216 FILLER_0_104_1273
*1217 FILLER_0_104_1285
*1218 FILLER_0_104_1289
*1219 FILLER_0_104_1301
*1220 FILLER_0_104_1313
*1221 FILLER_0_104_1317
*1222 FILLER_0_104_1329
*1223 FILLER_0_104_1341
*1224 FILLER_0_104_137
*1225 FILLER_0_104_141
*1226 FILLER_0_104_15
*1227 FILLER_0_104_153
*1228 FILLER_0_104_165
*1229 FILLER_0_104_169
*1230 FILLER_0_104_181
*1231 FILLER_0_104_193
*1232 FILLER_0_104_197
*1233 FILLER_0_104_209
*1234 FILLER_0_104_221
*1235 FILLER_0_104_225
*1236 FILLER_0_104_237
*1237 FILLER_0_104_249
*1238 FILLER_0_104_253
*1239 FILLER_0_104_265
*1240 FILLER_0_104_27
*1241 FILLER_0_104_277
*1242 FILLER_0_104_281
*1243 FILLER_0_104_29
*1244 FILLER_0_104_293
*1245 FILLER_0_104_3
*1246 FILLER_0_104_305
*1247 FILLER_0_104_309
*1248 FILLER_0_104_321
*1249 FILLER_0_104_333
*1250 FILLER_0_104_337
*1251 FILLER_0_104_349
*1252 FILLER_0_104_361
*1253 FILLER_0_104_385
*1254 FILLER_0_104_389
*1255 FILLER_0_104_41
*1256 FILLER_0_104_413
*1257 FILLER_0_104_417
*1258 FILLER_0_104_421
*1259 FILLER_0_104_433
*1260 FILLER_0_104_445
*1261 FILLER_0_104_449
*1262 FILLER_0_104_461
*1263 FILLER_0_104_473
*1264 FILLER_0_104_477
*1265 FILLER_0_104_489
*1266 FILLER_0_104_501
*1267 FILLER_0_104_505
*1268 FILLER_0_104_517
*1269 FILLER_0_104_529
*1270 FILLER_0_104_53
*1271 FILLER_0_104_533
*1272 FILLER_0_104_545
*1273 FILLER_0_104_557
*1274 FILLER_0_104_561
*1275 FILLER_0_104_57
*1276 FILLER_0_104_573
*1277 FILLER_0_104_585
*1278 FILLER_0_104_589
*1279 FILLER_0_104_601
*1280 FILLER_0_104_613
*1281 FILLER_0_104_617
*1282 FILLER_0_104_629
*1283 FILLER_0_104_641
*1284 FILLER_0_104_645
*1285 FILLER_0_104_657
*1286 FILLER_0_104_669
*1287 FILLER_0_104_673
*1288 FILLER_0_104_685
*1289 FILLER_0_104_69
*1290 FILLER_0_104_697
*1291 FILLER_0_104_701
*1292 FILLER_0_104_713
*1293 FILLER_0_104_725
*1294 FILLER_0_104_729
*1295 FILLER_0_104_741
*1296 FILLER_0_104_753
*1297 FILLER_0_104_757
*1298 FILLER_0_104_769
*1299 FILLER_0_104_781
*1300 FILLER_0_104_785
*1301 FILLER_0_104_797
*1302 FILLER_0_104_809
*1303 FILLER_0_104_81
*1304 FILLER_0_104_813
*1305 FILLER_0_104_825
*1306 FILLER_0_104_837
*1307 FILLER_0_104_841
*1308 FILLER_0_104_85
*1309 FILLER_0_104_853
*1310 FILLER_0_104_865
*1311 FILLER_0_104_869
*1312 FILLER_0_104_881
*1313 FILLER_0_104_893
*1314 FILLER_0_104_897
*1315 FILLER_0_104_909
*1316 FILLER_0_104_921
*1317 FILLER_0_104_925
*1318 FILLER_0_104_937
*1319 FILLER_0_104_949
*1320 FILLER_0_104_953
*1321 FILLER_0_104_965
*1322 FILLER_0_104_97
*1323 FILLER_0_104_977
*1324 FILLER_0_104_981
*1325 FILLER_0_104_993
*1326 FILLER_0_105_10
*1327 FILLER_0_105_1001
*1328 FILLER_0_105_1007
*1329 FILLER_0_105_1009
*1330 FILLER_0_105_1021
*1331 FILLER_0_105_1033
*1332 FILLER_0_105_1045
*1333 FILLER_0_105_105
*1334 FILLER_0_105_1057
*1335 FILLER_0_105_1063
*1336 FILLER_0_105_1065
*1337 FILLER_0_105_1077
*1338 FILLER_0_105_1089
*1339 FILLER_0_105_1101
*1340 FILLER_0_105_111
*1341 FILLER_0_105_1113
*1342 FILLER_0_105_1119
*1343 FILLER_0_105_1121
*1344 FILLER_0_105_113
*1345 FILLER_0_105_1133
*1346 FILLER_0_105_1145
*1347 FILLER_0_105_1157
*1348 FILLER_0_105_1169
*1349 FILLER_0_105_1175
*1350 FILLER_0_105_1177
*1351 FILLER_0_105_1189
*1352 FILLER_0_105_1201
*1353 FILLER_0_105_1213
*1354 FILLER_0_105_1225
*1355 FILLER_0_105_1231
*1356 FILLER_0_105_1233
*1357 FILLER_0_105_1245
*1358 FILLER_0_105_125
*1359 FILLER_0_105_1257
*1360 FILLER_0_105_1269
*1361 FILLER_0_105_1281
*1362 FILLER_0_105_1287
*1363 FILLER_0_105_1289
*1364 FILLER_0_105_1301
*1365 FILLER_0_105_1313
*1366 FILLER_0_105_1325
*1367 FILLER_0_105_1337
*1368 FILLER_0_105_1343
*1369 FILLER_0_105_137
*1370 FILLER_0_105_149
*1371 FILLER_0_105_161
*1372 FILLER_0_105_167
*1373 FILLER_0_105_169
*1374 FILLER_0_105_181
*1375 FILLER_0_105_193
*1376 FILLER_0_105_205
*1377 FILLER_0_105_217
*1378 FILLER_0_105_22
*1379 FILLER_0_105_223
*1380 FILLER_0_105_225
*1381 FILLER_0_105_237
*1382 FILLER_0_105_249
*1383 FILLER_0_105_261
*1384 FILLER_0_105_273
*1385 FILLER_0_105_279
*1386 FILLER_0_105_281
*1387 FILLER_0_105_293
*1388 FILLER_0_105_305
*1389 FILLER_0_105_317
*1390 FILLER_0_105_329
*1391 FILLER_0_105_335
*1392 FILLER_0_105_337
*1393 FILLER_0_105_34
*1394 FILLER_0_105_349
*1395 FILLER_0_105_361
*1396 FILLER_0_105_373
*1397 FILLER_0_105_385
*1398 FILLER_0_105_391
*1399 FILLER_0_105_393
*1400 FILLER_0_105_405
*1401 FILLER_0_105_417
*1402 FILLER_0_105_429
*1403 FILLER_0_105_441
*1404 FILLER_0_105_447
*1405 FILLER_0_105_449
*1406 FILLER_0_105_46
*1407 FILLER_0_105_461
*1408 FILLER_0_105_473
*1409 FILLER_0_105_485
*1410 FILLER_0_105_497
*1411 FILLER_0_105_503
*1412 FILLER_0_105_505
*1413 FILLER_0_105_517
*1414 FILLER_0_105_529
*1415 FILLER_0_105_54
*1416 FILLER_0_105_541
*1417 FILLER_0_105_553
*1418 FILLER_0_105_559
*1419 FILLER_0_105_561
*1420 FILLER_0_105_57
*1421 FILLER_0_105_573
*1422 FILLER_0_105_585
*1423 FILLER_0_105_597
*1424 FILLER_0_105_6
*1425 FILLER_0_105_609
*1426 FILLER_0_105_615
*1427 FILLER_0_105_617
*1428 FILLER_0_105_629
*1429 FILLER_0_105_641
*1430 FILLER_0_105_653
*1431 FILLER_0_105_665
*1432 FILLER_0_105_671
*1433 FILLER_0_105_673
*1434 FILLER_0_105_685
*1435 FILLER_0_105_69
*1436 FILLER_0_105_697
*1437 FILLER_0_105_709
*1438 FILLER_0_105_721
*1439 FILLER_0_105_727
*1440 FILLER_0_105_729
*1441 FILLER_0_105_741
*1442 FILLER_0_105_753
*1443 FILLER_0_105_765
*1444 FILLER_0_105_777
*1445 FILLER_0_105_783
*1446 FILLER_0_105_785
*1447 FILLER_0_105_797
*1448 FILLER_0_105_809
*1449 FILLER_0_105_81
*1450 FILLER_0_105_821
*1451 FILLER_0_105_833
*1452 FILLER_0_105_839
*1453 FILLER_0_105_841
*1454 FILLER_0_105_853
*1455 FILLER_0_105_865
*1456 FILLER_0_105_877
*1457 FILLER_0_105_889
*1458 FILLER_0_105_895
*1459 FILLER_0_105_897
*1460 FILLER_0_105_909
*1461 FILLER_0_105_921
*1462 FILLER_0_105_93
*1463 FILLER_0_105_933
*1464 FILLER_0_105_945
*1465 FILLER_0_105_951
*1466 FILLER_0_105_953
*1467 FILLER_0_105_965
*1468 FILLER_0_105_977
*1469 FILLER_0_105_989
*1470 FILLER_0_106_1005
*1471 FILLER_0_106_1017
*1472 FILLER_0_106_1029
*1473 FILLER_0_106_1035
*1474 FILLER_0_106_1037
*1475 FILLER_0_106_1049
*1476 FILLER_0_106_1061
*1477 FILLER_0_106_1073
*1478 FILLER_0_106_1085
*1479 FILLER_0_106_109
*1480 FILLER_0_106_1091
*1481 FILLER_0_106_1093
*1482 FILLER_0_106_1105
*1483 FILLER_0_106_1117
*1484 FILLER_0_106_1129
*1485 FILLER_0_106_1141
*1486 FILLER_0_106_1147
*1487 FILLER_0_106_1149
*1488 FILLER_0_106_1161
*1489 FILLER_0_106_1173
*1490 FILLER_0_106_1185
*1491 FILLER_0_106_1197
*1492 FILLER_0_106_1203
*1493 FILLER_0_106_1205
*1494 FILLER_0_106_121
*1495 FILLER_0_106_1217
*1496 FILLER_0_106_1229
*1497 FILLER_0_106_1241
*1498 FILLER_0_106_1253
*1499 FILLER_0_106_1259
*1500 FILLER_0_106_1261
*1501 FILLER_0_106_1273
*1502 FILLER_0_106_1285
*1503 FILLER_0_106_1297
*1504 FILLER_0_106_1309
*1505 FILLER_0_106_1315
*1506 FILLER_0_106_1317
*1507 FILLER_0_106_1329
*1508 FILLER_0_106_133
*1509 FILLER_0_106_1341
*1510 FILLER_0_106_139
*1511 FILLER_0_106_141
*1512 FILLER_0_106_15
*1513 FILLER_0_106_153
*1514 FILLER_0_106_165
*1515 FILLER_0_106_177
*1516 FILLER_0_106_189
*1517 FILLER_0_106_195
*1518 FILLER_0_106_197
*1519 FILLER_0_106_209
*1520 FILLER_0_106_221
*1521 FILLER_0_106_233
*1522 FILLER_0_106_245
*1523 FILLER_0_106_251
*1524 FILLER_0_106_253
*1525 FILLER_0_106_265
*1526 FILLER_0_106_27
*1527 FILLER_0_106_277
*1528 FILLER_0_106_289
*1529 FILLER_0_106_29
*1530 FILLER_0_106_3
*1531 FILLER_0_106_301
*1532 FILLER_0_106_307
*1533 FILLER_0_106_309
*1534 FILLER_0_106_321
*1535 FILLER_0_106_333
*1536 FILLER_0_106_345
*1537 FILLER_0_106_357
*1538 FILLER_0_106_363
*1539 FILLER_0_106_365
*1540 FILLER_0_106_377
*1541 FILLER_0_106_389
*1542 FILLER_0_106_401
*1543 FILLER_0_106_41
*1544 FILLER_0_106_413
*1545 FILLER_0_106_419
*1546 FILLER_0_106_421
*1547 FILLER_0_106_433
*1548 FILLER_0_106_445
*1549 FILLER_0_106_457
*1550 FILLER_0_106_469
*1551 FILLER_0_106_475
*1552 FILLER_0_106_477
*1553 FILLER_0_106_489
*1554 FILLER_0_106_501
*1555 FILLER_0_106_513
*1556 FILLER_0_106_525
*1557 FILLER_0_106_53
*1558 FILLER_0_106_531
*1559 FILLER_0_106_533
*1560 FILLER_0_106_545
*1561 FILLER_0_106_557
*1562 FILLER_0_106_569
*1563 FILLER_0_106_581
*1564 FILLER_0_106_587
*1565 FILLER_0_106_589
*1566 FILLER_0_106_601
*1567 FILLER_0_106_613
*1568 FILLER_0_106_625
*1569 FILLER_0_106_637
*1570 FILLER_0_106_643
*1571 FILLER_0_106_645
*1572 FILLER_0_106_65
*1573 FILLER_0_106_657
*1574 FILLER_0_106_669
*1575 FILLER_0_106_681
*1576 FILLER_0_106_693
*1577 FILLER_0_106_699
*1578 FILLER_0_106_701
*1579 FILLER_0_106_713
*1580 FILLER_0_106_725
*1581 FILLER_0_106_737
*1582 FILLER_0_106_749
*1583 FILLER_0_106_755
*1584 FILLER_0_106_757
*1585 FILLER_0_106_769
*1586 FILLER_0_106_77
*1587 FILLER_0_106_781
*1588 FILLER_0_106_793
*1589 FILLER_0_106_805
*1590 FILLER_0_106_811
*1591 FILLER_0_106_813
*1592 FILLER_0_106_825
*1593 FILLER_0_106_83
*1594 FILLER_0_106_837
*1595 FILLER_0_106_849
*1596 FILLER_0_106_85
*1597 FILLER_0_106_861
*1598 FILLER_0_106_867
*1599 FILLER_0_106_869
*1600 FILLER_0_106_881
*1601 FILLER_0_106_893
*1602 FILLER_0_106_905
*1603 FILLER_0_106_917
*1604 FILLER_0_106_923
*1605 FILLER_0_106_925
*1606 FILLER_0_106_937
*1607 FILLER_0_106_949
*1608 FILLER_0_106_961
*1609 FILLER_0_106_97
*1610 FILLER_0_106_973
*1611 FILLER_0_106_979
*1612 FILLER_0_106_981
*1613 FILLER_0_106_993
*1614 FILLER_0_107_1001
*1615 FILLER_0_107_1007
*1616 FILLER_0_107_1009
*1617 FILLER_0_107_1021
*1618 FILLER_0_107_1033
*1619 FILLER_0_107_1045
*1620 FILLER_0_107_105
*1621 FILLER_0_107_1057
*1622 FILLER_0_107_1063
*1623 FILLER_0_107_1065
*1624 FILLER_0_107_1077
*1625 FILLER_0_107_1089
*1626 FILLER_0_107_1101
*1627 FILLER_0_107_111
*1628 FILLER_0_107_1113
*1629 FILLER_0_107_1119
*1630 FILLER_0_107_1121
*1631 FILLER_0_107_113
*1632 FILLER_0_107_1133
*1633 FILLER_0_107_1145
*1634 FILLER_0_107_1157
*1635 FILLER_0_107_1169
*1636 FILLER_0_107_1175
*1637 FILLER_0_107_1177
*1638 FILLER_0_107_1189
*1639 FILLER_0_107_1201
*1640 FILLER_0_107_1213
*1641 FILLER_0_107_1225
*1642 FILLER_0_107_1231
*1643 FILLER_0_107_1233
*1644 FILLER_0_107_1245
*1645 FILLER_0_107_125
*1646 FILLER_0_107_1257
*1647 FILLER_0_107_1269
*1648 FILLER_0_107_1281
*1649 FILLER_0_107_1287
*1650 FILLER_0_107_1289
*1651 FILLER_0_107_1301
*1652 FILLER_0_107_1313
*1653 FILLER_0_107_1325
*1654 FILLER_0_107_1333
*1655 FILLER_0_107_137
*1656 FILLER_0_107_149
*1657 FILLER_0_107_15
*1658 FILLER_0_107_161
*1659 FILLER_0_107_167
*1660 FILLER_0_107_169
*1661 FILLER_0_107_181
*1662 FILLER_0_107_193
*1663 FILLER_0_107_205
*1664 FILLER_0_107_217
*1665 FILLER_0_107_223
*1666 FILLER_0_107_225
*1667 FILLER_0_107_237
*1668 FILLER_0_107_249
*1669 FILLER_0_107_261
*1670 FILLER_0_107_27
*1671 FILLER_0_107_273
*1672 FILLER_0_107_279
*1673 FILLER_0_107_281
*1674 FILLER_0_107_293
*1675 FILLER_0_107_3
*1676 FILLER_0_107_305
*1677 FILLER_0_107_317
*1678 FILLER_0_107_329
*1679 FILLER_0_107_335
*1680 FILLER_0_107_337
*1681 FILLER_0_107_349
*1682 FILLER_0_107_361
*1683 FILLER_0_107_373
*1684 FILLER_0_107_385
*1685 FILLER_0_107_39
*1686 FILLER_0_107_391
*1687 FILLER_0_107_393
*1688 FILLER_0_107_405
*1689 FILLER_0_107_417
*1690 FILLER_0_107_429
*1691 FILLER_0_107_441
*1692 FILLER_0_107_447
*1693 FILLER_0_107_449
*1694 FILLER_0_107_461
*1695 FILLER_0_107_473
*1696 FILLER_0_107_485
*1697 FILLER_0_107_497
*1698 FILLER_0_107_503
*1699 FILLER_0_107_505
*1700 FILLER_0_107_51
*1701 FILLER_0_107_517
*1702 FILLER_0_107_529
*1703 FILLER_0_107_541
*1704 FILLER_0_107_55
*1705 FILLER_0_107_553
*1706 FILLER_0_107_559
*1707 FILLER_0_107_561
*1708 FILLER_0_107_57
*1709 FILLER_0_107_573
*1710 FILLER_0_107_585
*1711 FILLER_0_107_597
*1712 FILLER_0_107_609
*1713 FILLER_0_107_615
*1714 FILLER_0_107_617
*1715 FILLER_0_107_629
*1716 FILLER_0_107_641
*1717 FILLER_0_107_653
*1718 FILLER_0_107_665
*1719 FILLER_0_107_671
*1720 FILLER_0_107_673
*1721 FILLER_0_107_685
*1722 FILLER_0_107_69
*1723 FILLER_0_107_697
*1724 FILLER_0_107_709
*1725 FILLER_0_107_721
*1726 FILLER_0_107_727
*1727 FILLER_0_107_729
*1728 FILLER_0_107_741
*1729 FILLER_0_107_753
*1730 FILLER_0_107_765
*1731 FILLER_0_107_777
*1732 FILLER_0_107_783
*1733 FILLER_0_107_785
*1734 FILLER_0_107_797
*1735 FILLER_0_107_809
*1736 FILLER_0_107_81
*1737 FILLER_0_107_821
*1738 FILLER_0_107_833
*1739 FILLER_0_107_839
*1740 FILLER_0_107_841
*1741 FILLER_0_107_853
*1742 FILLER_0_107_865
*1743 FILLER_0_107_877
*1744 FILLER_0_107_889
*1745 FILLER_0_107_895
*1746 FILLER_0_107_897
*1747 FILLER_0_107_909
*1748 FILLER_0_107_921
*1749 FILLER_0_107_93
*1750 FILLER_0_107_933
*1751 FILLER_0_107_945
*1752 FILLER_0_107_951
*1753 FILLER_0_107_953
*1754 FILLER_0_107_965
*1755 FILLER_0_107_977
*1756 FILLER_0_107_989
*1757 FILLER_0_108_10
*1758 FILLER_0_108_1005
*1759 FILLER_0_108_1017
*1760 FILLER_0_108_1029
*1761 FILLER_0_108_1035
*1762 FILLER_0_108_1037
*1763 FILLER_0_108_1049
*1764 FILLER_0_108_1061
*1765 FILLER_0_108_1073
*1766 FILLER_0_108_1085
*1767 FILLER_0_108_109
*1768 FILLER_0_108_1091
*1769 FILLER_0_108_1093
*1770 FILLER_0_108_1105
*1771 FILLER_0_108_1117
*1772 FILLER_0_108_1129
*1773 FILLER_0_108_1141
*1774 FILLER_0_108_1147
*1775 FILLER_0_108_1149
*1776 FILLER_0_108_1161
*1777 FILLER_0_108_1173
*1778 FILLER_0_108_1185
*1779 FILLER_0_108_1197
*1780 FILLER_0_108_1203
*1781 FILLER_0_108_1205
*1782 FILLER_0_108_121
*1783 FILLER_0_108_1217
*1784 FILLER_0_108_1229
*1785 FILLER_0_108_1241
*1786 FILLER_0_108_1253
*1787 FILLER_0_108_1259
*1788 FILLER_0_108_1261
*1789 FILLER_0_108_1273
*1790 FILLER_0_108_1285
*1791 FILLER_0_108_1297
*1792 FILLER_0_108_1309
*1793 FILLER_0_108_1315
*1794 FILLER_0_108_1317
*1795 FILLER_0_108_1329
*1796 FILLER_0_108_133
*1797 FILLER_0_108_1341
*1798 FILLER_0_108_139
*1799 FILLER_0_108_141
*1800 FILLER_0_108_153
*1801 FILLER_0_108_165
*1802 FILLER_0_108_177
*1803 FILLER_0_108_189
*1804 FILLER_0_108_195
*1805 FILLER_0_108_197
*1806 FILLER_0_108_209
*1807 FILLER_0_108_22
*1808 FILLER_0_108_221
*1809 FILLER_0_108_233
*1810 FILLER_0_108_245
*1811 FILLER_0_108_251
*1812 FILLER_0_108_253
*1813 FILLER_0_108_265
*1814 FILLER_0_108_277
*1815 FILLER_0_108_289
*1816 FILLER_0_108_29
*1817 FILLER_0_108_301
*1818 FILLER_0_108_307
*1819 FILLER_0_108_309
*1820 FILLER_0_108_321
*1821 FILLER_0_108_333
*1822 FILLER_0_108_345
*1823 FILLER_0_108_357
*1824 FILLER_0_108_363
*1825 FILLER_0_108_365
*1826 FILLER_0_108_377
*1827 FILLER_0_108_389
*1828 FILLER_0_108_401
*1829 FILLER_0_108_41
*1830 FILLER_0_108_413
*1831 FILLER_0_108_419
*1832 FILLER_0_108_421
*1833 FILLER_0_108_433
*1834 FILLER_0_108_445
*1835 FILLER_0_108_457
*1836 FILLER_0_108_469
*1837 FILLER_0_108_475
*1838 FILLER_0_108_477
*1839 FILLER_0_108_489
*1840 FILLER_0_108_501
*1841 FILLER_0_108_513
*1842 FILLER_0_108_525
*1843 FILLER_0_108_53
*1844 FILLER_0_108_531
*1845 FILLER_0_108_533
*1846 FILLER_0_108_545
*1847 FILLER_0_108_557
*1848 FILLER_0_108_569
*1849 FILLER_0_108_581
*1850 FILLER_0_108_587
*1851 FILLER_0_108_589
*1852 FILLER_0_108_6
*1853 FILLER_0_108_601
*1854 FILLER_0_108_613
*1855 FILLER_0_108_625
*1856 FILLER_0_108_637
*1857 FILLER_0_108_643
*1858 FILLER_0_108_645
*1859 FILLER_0_108_65
*1860 FILLER_0_108_657
*1861 FILLER_0_108_669
*1862 FILLER_0_108_681
*1863 FILLER_0_108_693
*1864 FILLER_0_108_699
*1865 FILLER_0_108_701
*1866 FILLER_0_108_713
*1867 FILLER_0_108_725
*1868 FILLER_0_108_737
*1869 FILLER_0_108_749
*1870 FILLER_0_108_755
*1871 FILLER_0_108_757
*1872 FILLER_0_108_769
*1873 FILLER_0_108_77
*1874 FILLER_0_108_781
*1875 FILLER_0_108_793
*1876 FILLER_0_108_805
*1877 FILLER_0_108_811
*1878 FILLER_0_108_813
*1879 FILLER_0_108_825
*1880 FILLER_0_108_83
*1881 FILLER_0_108_837
*1882 FILLER_0_108_849
*1883 FILLER_0_108_85
*1884 FILLER_0_108_861
*1885 FILLER_0_108_867
*1886 FILLER_0_108_869
*1887 FILLER_0_108_881
*1888 FILLER_0_108_893
*1889 FILLER_0_108_905
*1890 FILLER_0_108_917
*1891 FILLER_0_108_923
*1892 FILLER_0_108_925
*1893 FILLER_0_108_937
*1894 FILLER_0_108_949
*1895 FILLER_0_108_961
*1896 FILLER_0_108_97
*1897 FILLER_0_108_973
*1898 FILLER_0_108_979
*1899 FILLER_0_108_981
*1900 FILLER_0_108_993
*1901 FILLER_0_109_1001
*1902 FILLER_0_109_1007
*1903 FILLER_0_109_1009
*1904 FILLER_0_109_1021
*1905 FILLER_0_109_1033
*1906 FILLER_0_109_1045
*1907 FILLER_0_109_105
*1908 FILLER_0_109_1057
*1909 FILLER_0_109_1063
*1910 FILLER_0_109_1065
*1911 FILLER_0_109_1077
*1912 FILLER_0_109_1089
*1913 FILLER_0_109_1101
*1914 FILLER_0_109_111
*1915 FILLER_0_109_1113
*1916 FILLER_0_109_1119
*1917 FILLER_0_109_1121
*1918 FILLER_0_109_113
*1919 FILLER_0_109_1133
*1920 FILLER_0_109_1145
*1921 FILLER_0_109_1157
*1922 FILLER_0_109_1169
*1923 FILLER_0_109_1175
*1924 FILLER_0_109_1177
*1925 FILLER_0_109_1189
*1926 FILLER_0_109_1201
*1927 FILLER_0_109_1213
*1928 FILLER_0_109_1225
*1929 FILLER_0_109_1231
*1930 FILLER_0_109_1233
*1931 FILLER_0_109_1245
*1932 FILLER_0_109_125
*1933 FILLER_0_109_1257
*1934 FILLER_0_109_1269
*1935 FILLER_0_109_1281
*1936 FILLER_0_109_1287
*1937 FILLER_0_109_1289
*1938 FILLER_0_109_1301
*1939 FILLER_0_109_1313
*1940 FILLER_0_109_1325
*1941 FILLER_0_109_1337
*1942 FILLER_0_109_1343
*1943 FILLER_0_109_137
*1944 FILLER_0_109_149
*1945 FILLER_0_109_15
*1946 FILLER_0_109_161
*1947 FILLER_0_109_167
*1948 FILLER_0_109_169
*1949 FILLER_0_109_181
*1950 FILLER_0_109_193
*1951 FILLER_0_109_205
*1952 FILLER_0_109_217
*1953 FILLER_0_109_223
*1954 FILLER_0_109_225
*1955 FILLER_0_109_237
*1956 FILLER_0_109_249
*1957 FILLER_0_109_261
*1958 FILLER_0_109_27
*1959 FILLER_0_109_273
*1960 FILLER_0_109_279
*1961 FILLER_0_109_281
*1962 FILLER_0_109_293
*1963 FILLER_0_109_3
*1964 FILLER_0_109_305
*1965 FILLER_0_109_317
*1966 FILLER_0_109_329
*1967 FILLER_0_109_335
*1968 FILLER_0_109_337
*1969 FILLER_0_109_349
*1970 FILLER_0_109_361
*1971 FILLER_0_109_373
*1972 FILLER_0_109_385
*1973 FILLER_0_109_39
*1974 FILLER_0_109_391
*1975 FILLER_0_109_393
*1976 FILLER_0_109_405
*1977 FILLER_0_109_417
*1978 FILLER_0_109_429
*1979 FILLER_0_109_441
*1980 FILLER_0_109_447
*1981 FILLER_0_109_449
*1982 FILLER_0_109_461
*1983 FILLER_0_109_473
*1984 FILLER_0_109_485
*1985 FILLER_0_109_497
*1986 FILLER_0_109_503
*1987 FILLER_0_109_505
*1988 FILLER_0_109_51
*1989 FILLER_0_109_517
*1990 FILLER_0_109_529
*1991 FILLER_0_109_541
*1992 FILLER_0_109_55
*1993 FILLER_0_109_553
*1994 FILLER_0_109_559
*1995 FILLER_0_109_561
*1996 FILLER_0_109_57
*1997 FILLER_0_109_573
*1998 FILLER_0_109_585
*1999 FILLER_0_109_597
*2000 FILLER_0_109_609
*2001 FILLER_0_109_615
*2002 FILLER_0_109_617
*2003 FILLER_0_109_629
*2004 FILLER_0_109_641
*2005 FILLER_0_109_653
*2006 FILLER_0_109_665
*2007 FILLER_0_109_671
*2008 FILLER_0_109_673
*2009 FILLER_0_109_685
*2010 FILLER_0_109_69
*2011 FILLER_0_109_697
*2012 FILLER_0_109_709
*2013 FILLER_0_109_721
*2014 FILLER_0_109_727
*2015 FILLER_0_109_729
*2016 FILLER_0_109_741
*2017 FILLER_0_109_753
*2018 FILLER_0_109_765
*2019 FILLER_0_109_777
*2020 FILLER_0_109_783
*2021 FILLER_0_109_785
*2022 FILLER_0_109_797
*2023 FILLER_0_109_809
*2024 FILLER_0_109_81
*2025 FILLER_0_109_821
*2026 FILLER_0_109_833
*2027 FILLER_0_109_839
*2028 FILLER_0_109_841
*2029 FILLER_0_109_853
*2030 FILLER_0_109_865
*2031 FILLER_0_109_877
*2032 FILLER_0_109_889
*2033 FILLER_0_109_895
*2034 FILLER_0_109_897
*2035 FILLER_0_109_909
*2036 FILLER_0_109_921
*2037 FILLER_0_109_93
*2038 FILLER_0_109_933
*2039 FILLER_0_109_945
*2040 FILLER_0_109_951
*2041 FILLER_0_109_953
*2042 FILLER_0_109_965
*2043 FILLER_0_109_977
*2044 FILLER_0_109_989
*2045 FILLER_0_10_1201
*2046 FILLER_0_10_1213
*2047 FILLER_0_10_1225
*2048 FILLER_0_10_1227
*2049 FILLER_0_10_1239
*2050 FILLER_0_10_1251
*2051 FILLER_0_10_1263
*2052 FILLER_0_10_1275
*2053 FILLER_0_10_1281
*2054 FILLER_0_10_1283
*2055 FILLER_0_10_1295
*2056 FILLER_0_10_13
*2057 FILLER_0_10_1307
*2058 FILLER_0_10_1319
*2059 FILLER_0_10_1331
*2060 FILLER_0_10_1337
*2061 FILLER_0_10_1339
*2062 FILLER_0_10_25
*2063 FILLER_0_10_29
*2064 FILLER_0_10_41
*2065 FILLER_0_10_49
*2066 FILLER_0_10_593
*2067 FILLER_0_10_605
*2068 FILLER_0_10_617
*2069 FILLER_0_10_619
*2070 FILLER_0_10_631
*2071 FILLER_0_10_643
*2072 FILLER_0_10_655
*2073 FILLER_0_10_9
*2074 FILLER_0_110_1005
*2075 FILLER_0_110_1017
*2076 FILLER_0_110_1029
*2077 FILLER_0_110_1035
*2078 FILLER_0_110_1037
*2079 FILLER_0_110_1049
*2080 FILLER_0_110_1061
*2081 FILLER_0_110_1073
*2082 FILLER_0_110_1085
*2083 FILLER_0_110_109
*2084 FILLER_0_110_1091
*2085 FILLER_0_110_1093
*2086 FILLER_0_110_1105
*2087 FILLER_0_110_1117
*2088 FILLER_0_110_1129
*2089 FILLER_0_110_1141
*2090 FILLER_0_110_1147
*2091 FILLER_0_110_1149
*2092 FILLER_0_110_1161
*2093 FILLER_0_110_1173
*2094 FILLER_0_110_1185
*2095 FILLER_0_110_1197
*2096 FILLER_0_110_1203
*2097 FILLER_0_110_1205
*2098 FILLER_0_110_121
*2099 FILLER_0_110_1217
*2100 FILLER_0_110_1229
*2101 FILLER_0_110_1241
*2102 FILLER_0_110_1253
*2103 FILLER_0_110_1259
*2104 FILLER_0_110_1261
*2105 FILLER_0_110_1273
*2106 FILLER_0_110_1285
*2107 FILLER_0_110_1297
*2108 FILLER_0_110_1309
*2109 FILLER_0_110_1315
*2110 FILLER_0_110_1317
*2111 FILLER_0_110_1329
*2112 FILLER_0_110_133
*2113 FILLER_0_110_1341
*2114 FILLER_0_110_139
*2115 FILLER_0_110_141
*2116 FILLER_0_110_15
*2117 FILLER_0_110_153
*2118 FILLER_0_110_165
*2119 FILLER_0_110_177
*2120 FILLER_0_110_189
*2121 FILLER_0_110_195
*2122 FILLER_0_110_197
*2123 FILLER_0_110_209
*2124 FILLER_0_110_221
*2125 FILLER_0_110_233
*2126 FILLER_0_110_245
*2127 FILLER_0_110_251
*2128 FILLER_0_110_253
*2129 FILLER_0_110_265
*2130 FILLER_0_110_27
*2131 FILLER_0_110_277
*2132 FILLER_0_110_289
*2133 FILLER_0_110_29
*2134 FILLER_0_110_3
*2135 FILLER_0_110_301
*2136 FILLER_0_110_307
*2137 FILLER_0_110_309
*2138 FILLER_0_110_321
*2139 FILLER_0_110_333
*2140 FILLER_0_110_345
*2141 FILLER_0_110_357
*2142 FILLER_0_110_363
*2143 FILLER_0_110_365
*2144 FILLER_0_110_377
*2145 FILLER_0_110_389
*2146 FILLER_0_110_401
*2147 FILLER_0_110_41
*2148 FILLER_0_110_413
*2149 FILLER_0_110_419
*2150 FILLER_0_110_421
*2151 FILLER_0_110_433
*2152 FILLER_0_110_445
*2153 FILLER_0_110_457
*2154 FILLER_0_110_469
*2155 FILLER_0_110_475
*2156 FILLER_0_110_477
*2157 FILLER_0_110_489
*2158 FILLER_0_110_501
*2159 FILLER_0_110_513
*2160 FILLER_0_110_525
*2161 FILLER_0_110_53
*2162 FILLER_0_110_531
*2163 FILLER_0_110_533
*2164 FILLER_0_110_545
*2165 FILLER_0_110_557
*2166 FILLER_0_110_569
*2167 FILLER_0_110_581
*2168 FILLER_0_110_587
*2169 FILLER_0_110_589
*2170 FILLER_0_110_601
*2171 FILLER_0_110_613
*2172 FILLER_0_110_625
*2173 FILLER_0_110_637
*2174 FILLER_0_110_643
*2175 FILLER_0_110_645
*2176 FILLER_0_110_65
*2177 FILLER_0_110_657
*2178 FILLER_0_110_669
*2179 FILLER_0_110_681
*2180 FILLER_0_110_693
*2181 FILLER_0_110_699
*2182 FILLER_0_110_701
*2183 FILLER_0_110_713
*2184 FILLER_0_110_725
*2185 FILLER_0_110_737
*2186 FILLER_0_110_749
*2187 FILLER_0_110_755
*2188 FILLER_0_110_757
*2189 FILLER_0_110_769
*2190 FILLER_0_110_77
*2191 FILLER_0_110_781
*2192 FILLER_0_110_793
*2193 FILLER_0_110_805
*2194 FILLER_0_110_811
*2195 FILLER_0_110_813
*2196 FILLER_0_110_825
*2197 FILLER_0_110_83
*2198 FILLER_0_110_837
*2199 FILLER_0_110_849
*2200 FILLER_0_110_85
*2201 FILLER_0_110_861
*2202 FILLER_0_110_867
*2203 FILLER_0_110_869
*2204 FILLER_0_110_881
*2205 FILLER_0_110_893
*2206 FILLER_0_110_905
*2207 FILLER_0_110_917
*2208 FILLER_0_110_923
*2209 FILLER_0_110_925
*2210 FILLER_0_110_937
*2211 FILLER_0_110_949
*2212 FILLER_0_110_961
*2213 FILLER_0_110_97
*2214 FILLER_0_110_973
*2215 FILLER_0_110_979
*2216 FILLER_0_110_981
*2217 FILLER_0_110_993
*2218 FILLER_0_111_1001
*2219 FILLER_0_111_1007
*2220 FILLER_0_111_1009
*2221 FILLER_0_111_1021
*2222 FILLER_0_111_1033
*2223 FILLER_0_111_1045
*2224 FILLER_0_111_105
*2225 FILLER_0_111_1057
*2226 FILLER_0_111_1063
*2227 FILLER_0_111_1065
*2228 FILLER_0_111_1077
*2229 FILLER_0_111_1089
*2230 FILLER_0_111_1101
*2231 FILLER_0_111_111
*2232 FILLER_0_111_1113
*2233 FILLER_0_111_1119
*2234 FILLER_0_111_1121
*2235 FILLER_0_111_113
*2236 FILLER_0_111_1133
*2237 FILLER_0_111_1145
*2238 FILLER_0_111_1157
*2239 FILLER_0_111_1169
*2240 FILLER_0_111_1175
*2241 FILLER_0_111_1177
*2242 FILLER_0_111_1189
*2243 FILLER_0_111_1201
*2244 FILLER_0_111_1213
*2245 FILLER_0_111_1225
*2246 FILLER_0_111_1231
*2247 FILLER_0_111_1233
*2248 FILLER_0_111_1245
*2249 FILLER_0_111_125
*2250 FILLER_0_111_1257
*2251 FILLER_0_111_1269
*2252 FILLER_0_111_1281
*2253 FILLER_0_111_1287
*2254 FILLER_0_111_1289
*2255 FILLER_0_111_1301
*2256 FILLER_0_111_1313
*2257 FILLER_0_111_1325
*2258 FILLER_0_111_1337
*2259 FILLER_0_111_1343
*2260 FILLER_0_111_137
*2261 FILLER_0_111_149
*2262 FILLER_0_111_15
*2263 FILLER_0_111_161
*2264 FILLER_0_111_167
*2265 FILLER_0_111_169
*2266 FILLER_0_111_181
*2267 FILLER_0_111_193
*2268 FILLER_0_111_205
*2269 FILLER_0_111_217
*2270 FILLER_0_111_223
*2271 FILLER_0_111_225
*2272 FILLER_0_111_237
*2273 FILLER_0_111_249
*2274 FILLER_0_111_261
*2275 FILLER_0_111_27
*2276 FILLER_0_111_273
*2277 FILLER_0_111_279
*2278 FILLER_0_111_281
*2279 FILLER_0_111_293
*2280 FILLER_0_111_3
*2281 FILLER_0_111_305
*2282 FILLER_0_111_317
*2283 FILLER_0_111_329
*2284 FILLER_0_111_335
*2285 FILLER_0_111_337
*2286 FILLER_0_111_349
*2287 FILLER_0_111_361
*2288 FILLER_0_111_373
*2289 FILLER_0_111_385
*2290 FILLER_0_111_39
*2291 FILLER_0_111_391
*2292 FILLER_0_111_393
*2293 FILLER_0_111_405
*2294 FILLER_0_111_417
*2295 FILLER_0_111_429
*2296 FILLER_0_111_441
*2297 FILLER_0_111_447
*2298 FILLER_0_111_449
*2299 FILLER_0_111_461
*2300 FILLER_0_111_473
*2301 FILLER_0_111_485
*2302 FILLER_0_111_497
*2303 FILLER_0_111_503
*2304 FILLER_0_111_505
*2305 FILLER_0_111_51
*2306 FILLER_0_111_517
*2307 FILLER_0_111_529
*2308 FILLER_0_111_541
*2309 FILLER_0_111_55
*2310 FILLER_0_111_553
*2311 FILLER_0_111_559
*2312 FILLER_0_111_561
*2313 FILLER_0_111_57
*2314 FILLER_0_111_573
*2315 FILLER_0_111_585
*2316 FILLER_0_111_597
*2317 FILLER_0_111_609
*2318 FILLER_0_111_615
*2319 FILLER_0_111_617
*2320 FILLER_0_111_629
*2321 FILLER_0_111_641
*2322 FILLER_0_111_653
*2323 FILLER_0_111_665
*2324 FILLER_0_111_671
*2325 FILLER_0_111_673
*2326 FILLER_0_111_685
*2327 FILLER_0_111_69
*2328 FILLER_0_111_697
*2329 FILLER_0_111_709
*2330 FILLER_0_111_721
*2331 FILLER_0_111_727
*2332 FILLER_0_111_729
*2333 FILLER_0_111_741
*2334 FILLER_0_111_753
*2335 FILLER_0_111_765
*2336 FILLER_0_111_777
*2337 FILLER_0_111_783
*2338 FILLER_0_111_785
*2339 FILLER_0_111_797
*2340 FILLER_0_111_809
*2341 FILLER_0_111_81
*2342 FILLER_0_111_821
*2343 FILLER_0_111_833
*2344 FILLER_0_111_839
*2345 FILLER_0_111_841
*2346 FILLER_0_111_853
*2347 FILLER_0_111_865
*2348 FILLER_0_111_877
*2349 FILLER_0_111_889
*2350 FILLER_0_111_895
*2351 FILLER_0_111_897
*2352 FILLER_0_111_909
*2353 FILLER_0_111_921
*2354 FILLER_0_111_93
*2355 FILLER_0_111_933
*2356 FILLER_0_111_945
*2357 FILLER_0_111_951
*2358 FILLER_0_111_953
*2359 FILLER_0_111_965
*2360 FILLER_0_111_977
*2361 FILLER_0_111_989
*2362 FILLER_0_112_10
*2363 FILLER_0_112_1005
*2364 FILLER_0_112_1017
*2365 FILLER_0_112_1029
*2366 FILLER_0_112_1035
*2367 FILLER_0_112_1037
*2368 FILLER_0_112_1049
*2369 FILLER_0_112_1061
*2370 FILLER_0_112_1073
*2371 FILLER_0_112_1085
*2372 FILLER_0_112_109
*2373 FILLER_0_112_1091
*2374 FILLER_0_112_1093
*2375 FILLER_0_112_1105
*2376 FILLER_0_112_1117
*2377 FILLER_0_112_1129
*2378 FILLER_0_112_1141
*2379 FILLER_0_112_1147
*2380 FILLER_0_112_1149
*2381 FILLER_0_112_1161
*2382 FILLER_0_112_1173
*2383 FILLER_0_112_1185
*2384 FILLER_0_112_1197
*2385 FILLER_0_112_1203
*2386 FILLER_0_112_1205
*2387 FILLER_0_112_121
*2388 FILLER_0_112_1217
*2389 FILLER_0_112_1229
*2390 FILLER_0_112_1241
*2391 FILLER_0_112_1253
*2392 FILLER_0_112_1259
*2393 FILLER_0_112_1261
*2394 FILLER_0_112_1273
*2395 FILLER_0_112_1285
*2396 FILLER_0_112_1297
*2397 FILLER_0_112_1309
*2398 FILLER_0_112_1315
*2399 FILLER_0_112_1317
*2400 FILLER_0_112_1329
*2401 FILLER_0_112_133
*2402 FILLER_0_112_1341
*2403 FILLER_0_112_139
*2404 FILLER_0_112_141
*2405 FILLER_0_112_153
*2406 FILLER_0_112_165
*2407 FILLER_0_112_177
*2408 FILLER_0_112_189
*2409 FILLER_0_112_195
*2410 FILLER_0_112_197
*2411 FILLER_0_112_209
*2412 FILLER_0_112_22
*2413 FILLER_0_112_221
*2414 FILLER_0_112_233
*2415 FILLER_0_112_245
*2416 FILLER_0_112_251
*2417 FILLER_0_112_253
*2418 FILLER_0_112_265
*2419 FILLER_0_112_277
*2420 FILLER_0_112_289
*2421 FILLER_0_112_29
*2422 FILLER_0_112_301
*2423 FILLER_0_112_307
*2424 FILLER_0_112_309
*2425 FILLER_0_112_321
*2426 FILLER_0_112_333
*2427 FILLER_0_112_345
*2428 FILLER_0_112_357
*2429 FILLER_0_112_363
*2430 FILLER_0_112_365
*2431 FILLER_0_112_377
*2432 FILLER_0_112_389
*2433 FILLER_0_112_401
*2434 FILLER_0_112_41
*2435 FILLER_0_112_413
*2436 FILLER_0_112_419
*2437 FILLER_0_112_421
*2438 FILLER_0_112_433
*2439 FILLER_0_112_445
*2440 FILLER_0_112_457
*2441 FILLER_0_112_469
*2442 FILLER_0_112_475
*2443 FILLER_0_112_477
*2444 FILLER_0_112_489
*2445 FILLER_0_112_501
*2446 FILLER_0_112_513
*2447 FILLER_0_112_525
*2448 FILLER_0_112_53
*2449 FILLER_0_112_531
*2450 FILLER_0_112_533
*2451 FILLER_0_112_545
*2452 FILLER_0_112_557
*2453 FILLER_0_112_569
*2454 FILLER_0_112_581
*2455 FILLER_0_112_587
*2456 FILLER_0_112_589
*2457 FILLER_0_112_6
*2458 FILLER_0_112_601
*2459 FILLER_0_112_613
*2460 FILLER_0_112_625
*2461 FILLER_0_112_637
*2462 FILLER_0_112_643
*2463 FILLER_0_112_645
*2464 FILLER_0_112_65
*2465 FILLER_0_112_657
*2466 FILLER_0_112_669
*2467 FILLER_0_112_681
*2468 FILLER_0_112_693
*2469 FILLER_0_112_699
*2470 FILLER_0_112_701
*2471 FILLER_0_112_713
*2472 FILLER_0_112_725
*2473 FILLER_0_112_737
*2474 FILLER_0_112_749
*2475 FILLER_0_112_755
*2476 FILLER_0_112_757
*2477 FILLER_0_112_769
*2478 FILLER_0_112_77
*2479 FILLER_0_112_781
*2480 FILLER_0_112_793
*2481 FILLER_0_112_805
*2482 FILLER_0_112_811
*2483 FILLER_0_112_813
*2484 FILLER_0_112_825
*2485 FILLER_0_112_83
*2486 FILLER_0_112_837
*2487 FILLER_0_112_849
*2488 FILLER_0_112_85
*2489 FILLER_0_112_861
*2490 FILLER_0_112_867
*2491 FILLER_0_112_869
*2492 FILLER_0_112_881
*2493 FILLER_0_112_893
*2494 FILLER_0_112_905
*2495 FILLER_0_112_917
*2496 FILLER_0_112_923
*2497 FILLER_0_112_925
*2498 FILLER_0_112_937
*2499 FILLER_0_112_949
*2500 FILLER_0_112_961
*2501 FILLER_0_112_97
*2502 FILLER_0_112_973
*2503 FILLER_0_112_979
*2504 FILLER_0_112_981
*2505 FILLER_0_112_993
*2506 FILLER_0_113_1001
*2507 FILLER_0_113_1007
*2508 FILLER_0_113_1009
*2509 FILLER_0_113_1021
*2510 FILLER_0_113_1033
*2511 FILLER_0_113_1045
*2512 FILLER_0_113_105
*2513 FILLER_0_113_1057
*2514 FILLER_0_113_1063
*2515 FILLER_0_113_1065
*2516 FILLER_0_113_1077
*2517 FILLER_0_113_1089
*2518 FILLER_0_113_1101
*2519 FILLER_0_113_111
*2520 FILLER_0_113_1113
*2521 FILLER_0_113_1119
*2522 FILLER_0_113_1121
*2523 FILLER_0_113_113
*2524 FILLER_0_113_1133
*2525 FILLER_0_113_1145
*2526 FILLER_0_113_1157
*2527 FILLER_0_113_1169
*2528 FILLER_0_113_1175
*2529 FILLER_0_113_1177
*2530 FILLER_0_113_1189
*2531 FILLER_0_113_1201
*2532 FILLER_0_113_1213
*2533 FILLER_0_113_1225
*2534 FILLER_0_113_1231
*2535 FILLER_0_113_1233
*2536 FILLER_0_113_1245
*2537 FILLER_0_113_125
*2538 FILLER_0_113_1257
*2539 FILLER_0_113_1269
*2540 FILLER_0_113_1281
*2541 FILLER_0_113_1287
*2542 FILLER_0_113_1289
*2543 FILLER_0_113_1301
*2544 FILLER_0_113_1313
*2545 FILLER_0_113_1325
*2546 FILLER_0_113_1333
*2547 FILLER_0_113_137
*2548 FILLER_0_113_149
*2549 FILLER_0_113_15
*2550 FILLER_0_113_161
*2551 FILLER_0_113_167
*2552 FILLER_0_113_169
*2553 FILLER_0_113_181
*2554 FILLER_0_113_193
*2555 FILLER_0_113_205
*2556 FILLER_0_113_217
*2557 FILLER_0_113_223
*2558 FILLER_0_113_225
*2559 FILLER_0_113_237
*2560 FILLER_0_113_249
*2561 FILLER_0_113_261
*2562 FILLER_0_113_27
*2563 FILLER_0_113_273
*2564 FILLER_0_113_279
*2565 FILLER_0_113_281
*2566 FILLER_0_113_293
*2567 FILLER_0_113_3
*2568 FILLER_0_113_305
*2569 FILLER_0_113_317
*2570 FILLER_0_113_329
*2571 FILLER_0_113_335
*2572 FILLER_0_113_337
*2573 FILLER_0_113_349
*2574 FILLER_0_113_361
*2575 FILLER_0_113_373
*2576 FILLER_0_113_385
*2577 FILLER_0_113_39
*2578 FILLER_0_113_391
*2579 FILLER_0_113_393
*2580 FILLER_0_113_405
*2581 FILLER_0_113_417
*2582 FILLER_0_113_429
*2583 FILLER_0_113_441
*2584 FILLER_0_113_447
*2585 FILLER_0_113_449
*2586 FILLER_0_113_461
*2587 FILLER_0_113_473
*2588 FILLER_0_113_485
*2589 FILLER_0_113_497
*2590 FILLER_0_113_503
*2591 FILLER_0_113_505
*2592 FILLER_0_113_51
*2593 FILLER_0_113_517
*2594 FILLER_0_113_529
*2595 FILLER_0_113_541
*2596 FILLER_0_113_55
*2597 FILLER_0_113_553
*2598 FILLER_0_113_559
*2599 FILLER_0_113_561
*2600 FILLER_0_113_57
*2601 FILLER_0_113_573
*2602 FILLER_0_113_585
*2603 FILLER_0_113_597
*2604 FILLER_0_113_609
*2605 FILLER_0_113_615
*2606 FILLER_0_113_617
*2607 FILLER_0_113_629
*2608 FILLER_0_113_641
*2609 FILLER_0_113_653
*2610 FILLER_0_113_665
*2611 FILLER_0_113_671
*2612 FILLER_0_113_673
*2613 FILLER_0_113_685
*2614 FILLER_0_113_69
*2615 FILLER_0_113_697
*2616 FILLER_0_113_709
*2617 FILLER_0_113_721
*2618 FILLER_0_113_727
*2619 FILLER_0_113_729
*2620 FILLER_0_113_741
*2621 FILLER_0_113_753
*2622 FILLER_0_113_765
*2623 FILLER_0_113_777
*2624 FILLER_0_113_783
*2625 FILLER_0_113_785
*2626 FILLER_0_113_797
*2627 FILLER_0_113_809
*2628 FILLER_0_113_81
*2629 FILLER_0_113_821
*2630 FILLER_0_113_833
*2631 FILLER_0_113_839
*2632 FILLER_0_113_841
*2633 FILLER_0_113_853
*2634 FILLER_0_113_865
*2635 FILLER_0_113_877
*2636 FILLER_0_113_889
*2637 FILLER_0_113_895
*2638 FILLER_0_113_897
*2639 FILLER_0_113_909
*2640 FILLER_0_113_921
*2641 FILLER_0_113_93
*2642 FILLER_0_113_933
*2643 FILLER_0_113_945
*2644 FILLER_0_113_951
*2645 FILLER_0_113_953
*2646 FILLER_0_113_965
*2647 FILLER_0_113_977
*2648 FILLER_0_113_989
*2649 FILLER_0_114_1005
*2650 FILLER_0_114_1009
*2651 FILLER_0_114_1021
*2652 FILLER_0_114_1033
*2653 FILLER_0_114_1037
*2654 FILLER_0_114_1049
*2655 FILLER_0_114_1061
*2656 FILLER_0_114_1065
*2657 FILLER_0_114_1077
*2658 FILLER_0_114_1089
*2659 FILLER_0_114_109
*2660 FILLER_0_114_1093
*2661 FILLER_0_114_1105
*2662 FILLER_0_114_1117
*2663 FILLER_0_114_1121
*2664 FILLER_0_114_113
*2665 FILLER_0_114_1133
*2666 FILLER_0_114_1145
*2667 FILLER_0_114_1149
*2668 FILLER_0_114_1161
*2669 FILLER_0_114_1173
*2670 FILLER_0_114_1177
*2671 FILLER_0_114_1189
*2672 FILLER_0_114_1201
*2673 FILLER_0_114_1205
*2674 FILLER_0_114_1217
*2675 FILLER_0_114_1229
*2676 FILLER_0_114_1233
*2677 FILLER_0_114_1245
*2678 FILLER_0_114_125
*2679 FILLER_0_114_1257
*2680 FILLER_0_114_1261
*2681 FILLER_0_114_1273
*2682 FILLER_0_114_1285
*2683 FILLER_0_114_1289
*2684 FILLER_0_114_1301
*2685 FILLER_0_114_1313
*2686 FILLER_0_114_1317
*2687 FILLER_0_114_1329
*2688 FILLER_0_114_1341
*2689 FILLER_0_114_137
*2690 FILLER_0_114_141
*2691 FILLER_0_114_153
*2692 FILLER_0_114_165
*2693 FILLER_0_114_169
*2694 FILLER_0_114_181
*2695 FILLER_0_114_19
*2696 FILLER_0_114_193
*2697 FILLER_0_114_197
*2698 FILLER_0_114_209
*2699 FILLER_0_114_221
*2700 FILLER_0_114_225
*2701 FILLER_0_114_237
*2702 FILLER_0_114_249
*2703 FILLER_0_114_253
*2704 FILLER_0_114_265
*2705 FILLER_0_114_27
*2706 FILLER_0_114_277
*2707 FILLER_0_114_281
*2708 FILLER_0_114_29
*2709 FILLER_0_114_293
*2710 FILLER_0_114_3
*2711 FILLER_0_114_305
*2712 FILLER_0_114_309
*2713 FILLER_0_114_321
*2714 FILLER_0_114_333
*2715 FILLER_0_114_337
*2716 FILLER_0_114_349
*2717 FILLER_0_114_361
*2718 FILLER_0_114_365
*2719 FILLER_0_114_377
*2720 FILLER_0_114_389
*2721 FILLER_0_114_393
*2722 FILLER_0_114_405
*2723 FILLER_0_114_41
*2724 FILLER_0_114_417
*2725 FILLER_0_114_421
*2726 FILLER_0_114_433
*2727 FILLER_0_114_445
*2728 FILLER_0_114_449
*2729 FILLER_0_114_461
*2730 FILLER_0_114_473
*2731 FILLER_0_114_477
*2732 FILLER_0_114_489
*2733 FILLER_0_114_501
*2734 FILLER_0_114_505
*2735 FILLER_0_114_517
*2736 FILLER_0_114_529
*2737 FILLER_0_114_53
*2738 FILLER_0_114_533
*2739 FILLER_0_114_545
*2740 FILLER_0_114_557
*2741 FILLER_0_114_561
*2742 FILLER_0_114_57
*2743 FILLER_0_114_573
*2744 FILLER_0_114_585
*2745 FILLER_0_114_589
*2746 FILLER_0_114_601
*2747 FILLER_0_114_613
*2748 FILLER_0_114_617
*2749 FILLER_0_114_629
*2750 FILLER_0_114_641
*2751 FILLER_0_114_645
*2752 FILLER_0_114_657
*2753 FILLER_0_114_669
*2754 FILLER_0_114_673
*2755 FILLER_0_114_685
*2756 FILLER_0_114_69
*2757 FILLER_0_114_697
*2758 FILLER_0_114_7
*2759 FILLER_0_114_701
*2760 FILLER_0_114_713
*2761 FILLER_0_114_725
*2762 FILLER_0_114_729
*2763 FILLER_0_114_741
*2764 FILLER_0_114_753
*2765 FILLER_0_114_757
*2766 FILLER_0_114_769
*2767 FILLER_0_114_781
*2768 FILLER_0_114_785
*2769 FILLER_0_114_797
*2770 FILLER_0_114_809
*2771 FILLER_0_114_81
*2772 FILLER_0_114_813
*2773 FILLER_0_114_825
*2774 FILLER_0_114_837
*2775 FILLER_0_114_841
*2776 FILLER_0_114_85
*2777 FILLER_0_114_853
*2778 FILLER_0_114_865
*2779 FILLER_0_114_869
*2780 FILLER_0_114_881
*2781 FILLER_0_114_893
*2782 FILLER_0_114_897
*2783 FILLER_0_114_909
*2784 FILLER_0_114_921
*2785 FILLER_0_114_925
*2786 FILLER_0_114_937
*2787 FILLER_0_114_949
*2788 FILLER_0_114_953
*2789 FILLER_0_114_965
*2790 FILLER_0_114_97
*2791 FILLER_0_114_977
*2792 FILLER_0_114_981
*2793 FILLER_0_114_993
*2794 FILLER_0_115_1201
*2795 FILLER_0_115_1213
*2796 FILLER_0_115_1225
*2797 FILLER_0_115_1237
*2798 FILLER_0_115_1249
*2799 FILLER_0_115_1253
*2800 FILLER_0_115_1255
*2801 FILLER_0_115_1267
*2802 FILLER_0_115_1279
*2803 FILLER_0_115_1291
*2804 FILLER_0_115_13
*2805 FILLER_0_115_1303
*2806 FILLER_0_115_1309
*2807 FILLER_0_115_1311
*2808 FILLER_0_115_1323
*2809 FILLER_0_115_1335
*2810 FILLER_0_115_1343
*2811 FILLER_0_115_25
*2812 FILLER_0_115_37
*2813 FILLER_0_115_49
*2814 FILLER_0_115_593
*2815 FILLER_0_115_605
*2816 FILLER_0_115_617
*2817 FILLER_0_115_629
*2818 FILLER_0_115_641
*2819 FILLER_0_115_645
*2820 FILLER_0_115_647
*2821 FILLER_0_116_1201
*2822 FILLER_0_116_1213
*2823 FILLER_0_116_1225
*2824 FILLER_0_116_1227
*2825 FILLER_0_116_1239
*2826 FILLER_0_116_1251
*2827 FILLER_0_116_1263
*2828 FILLER_0_116_1275
*2829 FILLER_0_116_1281
*2830 FILLER_0_116_1283
*2831 FILLER_0_116_1295
*2832 FILLER_0_116_1307
*2833 FILLER_0_116_1319
*2834 FILLER_0_116_1331
*2835 FILLER_0_116_1337
*2836 FILLER_0_116_1339
*2837 FILLER_0_116_1343
*2838 FILLER_0_116_15
*2839 FILLER_0_116_27
*2840 FILLER_0_116_29
*2841 FILLER_0_116_3
*2842 FILLER_0_116_41
*2843 FILLER_0_116_49
*2844 FILLER_0_116_593
*2845 FILLER_0_116_605
*2846 FILLER_0_116_617
*2847 FILLER_0_116_619
*2848 FILLER_0_116_631
*2849 FILLER_0_116_643
*2850 FILLER_0_116_655
*2851 FILLER_0_117_1201
*2852 FILLER_0_117_1213
*2853 FILLER_0_117_1225
*2854 FILLER_0_117_1237
*2855 FILLER_0_117_1249
*2856 FILLER_0_117_1253
*2857 FILLER_0_117_1255
*2858 FILLER_0_117_1267
*2859 FILLER_0_117_1279
*2860 FILLER_0_117_1291
*2861 FILLER_0_117_1303
*2862 FILLER_0_117_1309
*2863 FILLER_0_117_1311
*2864 FILLER_0_117_1323
*2865 FILLER_0_117_1335
*2866 FILLER_0_117_1343
*2867 FILLER_0_117_15
*2868 FILLER_0_117_27
*2869 FILLER_0_117_3
*2870 FILLER_0_117_39
*2871 FILLER_0_117_47
*2872 FILLER_0_117_593
*2873 FILLER_0_117_605
*2874 FILLER_0_117_617
*2875 FILLER_0_117_629
*2876 FILLER_0_117_641
*2877 FILLER_0_117_645
*2878 FILLER_0_117_647
*2879 FILLER_0_118_1201
*2880 FILLER_0_118_1213
*2881 FILLER_0_118_1225
*2882 FILLER_0_118_1227
*2883 FILLER_0_118_1239
*2884 FILLER_0_118_1251
*2885 FILLER_0_118_1263
*2886 FILLER_0_118_1275
*2887 FILLER_0_118_1281
*2888 FILLER_0_118_1283
*2889 FILLER_0_118_1295
*2890 FILLER_0_118_1307
*2891 FILLER_0_118_1319
*2892 FILLER_0_118_1331
*2893 FILLER_0_118_1337
*2894 FILLER_0_118_1339
*2895 FILLER_0_118_1343
*2896 FILLER_0_118_15
*2897 FILLER_0_118_27
*2898 FILLER_0_118_29
*2899 FILLER_0_118_3
*2900 FILLER_0_118_41
*2901 FILLER_0_118_49
*2902 FILLER_0_118_593
*2903 FILLER_0_118_605
*2904 FILLER_0_118_617
*2905 FILLER_0_118_619
*2906 FILLER_0_118_631
*2907 FILLER_0_118_643
*2908 FILLER_0_118_655
*2909 FILLER_0_119_10
*2910 FILLER_0_119_1201
*2911 FILLER_0_119_1213
*2912 FILLER_0_119_1225
*2913 FILLER_0_119_1237
*2914 FILLER_0_119_1249
*2915 FILLER_0_119_1253
*2916 FILLER_0_119_1255
*2917 FILLER_0_119_1267
*2918 FILLER_0_119_1279
*2919 FILLER_0_119_1291
*2920 FILLER_0_119_1303
*2921 FILLER_0_119_1309
*2922 FILLER_0_119_1311
*2923 FILLER_0_119_1323
*2924 FILLER_0_119_1335
*2925 FILLER_0_119_22
*2926 FILLER_0_119_34
*2927 FILLER_0_119_46
*2928 FILLER_0_119_593
*2929 FILLER_0_119_6
*2930 FILLER_0_119_605
*2931 FILLER_0_119_617
*2932 FILLER_0_119_629
*2933 FILLER_0_119_641
*2934 FILLER_0_119_645
*2935 FILLER_0_119_647
*2936 FILLER_0_11_1201
*2937 FILLER_0_11_1213
*2938 FILLER_0_11_1225
*2939 FILLER_0_11_1237
*2940 FILLER_0_11_1249
*2941 FILLER_0_11_1253
*2942 FILLER_0_11_1255
*2943 FILLER_0_11_1267
*2944 FILLER_0_11_1279
*2945 FILLER_0_11_1291
*2946 FILLER_0_11_1303
*2947 FILLER_0_11_1309
*2948 FILLER_0_11_1311
*2949 FILLER_0_11_1323
*2950 FILLER_0_11_15
*2951 FILLER_0_11_27
*2952 FILLER_0_11_3
*2953 FILLER_0_11_39
*2954 FILLER_0_11_47
*2955 FILLER_0_11_593
*2956 FILLER_0_11_605
*2957 FILLER_0_11_617
*2958 FILLER_0_11_629
*2959 FILLER_0_11_641
*2960 FILLER_0_11_645
*2961 FILLER_0_11_647
*2962 FILLER_0_120_1201
*2963 FILLER_0_120_1213
*2964 FILLER_0_120_1225
*2965 FILLER_0_120_1227
*2966 FILLER_0_120_1239
*2967 FILLER_0_120_1251
*2968 FILLER_0_120_1263
*2969 FILLER_0_120_1275
*2970 FILLER_0_120_1281
*2971 FILLER_0_120_1283
*2972 FILLER_0_120_1295
*2973 FILLER_0_120_1307
*2974 FILLER_0_120_1319
*2975 FILLER_0_120_1331
*2976 FILLER_0_120_1337
*2977 FILLER_0_120_1339
*2978 FILLER_0_120_1343
*2979 FILLER_0_120_15
*2980 FILLER_0_120_27
*2981 FILLER_0_120_29
*2982 FILLER_0_120_3
*2983 FILLER_0_120_41
*2984 FILLER_0_120_49
*2985 FILLER_0_120_593
*2986 FILLER_0_120_605
*2987 FILLER_0_120_617
*2988 FILLER_0_120_619
*2989 FILLER_0_120_631
*2990 FILLER_0_120_643
*2991 FILLER_0_120_655
*2992 FILLER_0_121_1201
*2993 FILLER_0_121_1213
*2994 FILLER_0_121_1225
*2995 FILLER_0_121_1237
*2996 FILLER_0_121_1249
*2997 FILLER_0_121_1253
*2998 FILLER_0_121_1255
*2999 FILLER_0_121_1267
*3000 FILLER_0_121_1279
*3001 FILLER_0_121_1291
*3002 FILLER_0_121_1303
*3003 FILLER_0_121_1309
*3004 FILLER_0_121_1311
*3005 FILLER_0_121_1323
*3006 FILLER_0_121_1335
*3007 FILLER_0_121_1343
*3008 FILLER_0_121_15
*3009 FILLER_0_121_27
*3010 FILLER_0_121_3
*3011 FILLER_0_121_39
*3012 FILLER_0_121_47
*3013 FILLER_0_121_593
*3014 FILLER_0_121_605
*3015 FILLER_0_121_617
*3016 FILLER_0_121_629
*3017 FILLER_0_121_641
*3018 FILLER_0_121_645
*3019 FILLER_0_121_647
*3020 FILLER_0_122_10
*3021 FILLER_0_122_1201
*3022 FILLER_0_122_1213
*3023 FILLER_0_122_1225
*3024 FILLER_0_122_1227
*3025 FILLER_0_122_1239
*3026 FILLER_0_122_1251
*3027 FILLER_0_122_1263
*3028 FILLER_0_122_1275
*3029 FILLER_0_122_1281
*3030 FILLER_0_122_1283
*3031 FILLER_0_122_1295
*3032 FILLER_0_122_1307
*3033 FILLER_0_122_1319
*3034 FILLER_0_122_1331
*3035 FILLER_0_122_1337
*3036 FILLER_0_122_1339
*3037 FILLER_0_122_1343
*3038 FILLER_0_122_22
*3039 FILLER_0_122_29
*3040 FILLER_0_122_41
*3041 FILLER_0_122_49
*3042 FILLER_0_122_593
*3043 FILLER_0_122_6
*3044 FILLER_0_122_605
*3045 FILLER_0_122_617
*3046 FILLER_0_122_619
*3047 FILLER_0_122_631
*3048 FILLER_0_122_643
*3049 FILLER_0_122_655
*3050 FILLER_0_123_1201
*3051 FILLER_0_123_1213
*3052 FILLER_0_123_1225
*3053 FILLER_0_123_1237
*3054 FILLER_0_123_1249
*3055 FILLER_0_123_1253
*3056 FILLER_0_123_1255
*3057 FILLER_0_123_1267
*3058 FILLER_0_123_1279
*3059 FILLER_0_123_1291
*3060 FILLER_0_123_1303
*3061 FILLER_0_123_1309
*3062 FILLER_0_123_1311
*3063 FILLER_0_123_1323
*3064 FILLER_0_123_1335
*3065 FILLER_0_123_1343
*3066 FILLER_0_123_15
*3067 FILLER_0_123_27
*3068 FILLER_0_123_3
*3069 FILLER_0_123_39
*3070 FILLER_0_123_47
*3071 FILLER_0_123_593
*3072 FILLER_0_123_605
*3073 FILLER_0_123_617
*3074 FILLER_0_123_629
*3075 FILLER_0_123_641
*3076 FILLER_0_123_645
*3077 FILLER_0_123_647
*3078 FILLER_0_124_1201
*3079 FILLER_0_124_1213
*3080 FILLER_0_124_1225
*3081 FILLER_0_124_1227
*3082 FILLER_0_124_1239
*3083 FILLER_0_124_1251
*3084 FILLER_0_124_1263
*3085 FILLER_0_124_1275
*3086 FILLER_0_124_1281
*3087 FILLER_0_124_1283
*3088 FILLER_0_124_1295
*3089 FILLER_0_124_1307
*3090 FILLER_0_124_1319
*3091 FILLER_0_124_1331
*3092 FILLER_0_124_1337
*3093 FILLER_0_124_1339
*3094 FILLER_0_124_1343
*3095 FILLER_0_124_15
*3096 FILLER_0_124_27
*3097 FILLER_0_124_29
*3098 FILLER_0_124_3
*3099 FILLER_0_124_41
*3100 FILLER_0_124_49
*3101 FILLER_0_124_593
*3102 FILLER_0_124_605
*3103 FILLER_0_124_617
*3104 FILLER_0_124_619
*3105 FILLER_0_124_631
*3106 FILLER_0_124_643
*3107 FILLER_0_124_655
*3108 FILLER_0_125_1201
*3109 FILLER_0_125_1213
*3110 FILLER_0_125_1225
*3111 FILLER_0_125_1237
*3112 FILLER_0_125_1249
*3113 FILLER_0_125_1253
*3114 FILLER_0_125_1255
*3115 FILLER_0_125_1267
*3116 FILLER_0_125_1279
*3117 FILLER_0_125_1291
*3118 FILLER_0_125_1303
*3119 FILLER_0_125_1309
*3120 FILLER_0_125_1311
*3121 FILLER_0_125_1323
*3122 FILLER_0_125_1335
*3123 FILLER_0_125_15
*3124 FILLER_0_125_27
*3125 FILLER_0_125_3
*3126 FILLER_0_125_39
*3127 FILLER_0_125_47
*3128 FILLER_0_125_593
*3129 FILLER_0_125_605
*3130 FILLER_0_125_617
*3131 FILLER_0_125_629
*3132 FILLER_0_125_641
*3133 FILLER_0_125_645
*3134 FILLER_0_125_647
*3135 FILLER_0_126_10
*3136 FILLER_0_126_1201
*3137 FILLER_0_126_1213
*3138 FILLER_0_126_1225
*3139 FILLER_0_126_1227
*3140 FILLER_0_126_1239
*3141 FILLER_0_126_1251
*3142 FILLER_0_126_1263
*3143 FILLER_0_126_1275
*3144 FILLER_0_126_1281
*3145 FILLER_0_126_1283
*3146 FILLER_0_126_1295
*3147 FILLER_0_126_1307
*3148 FILLER_0_126_1319
*3149 FILLER_0_126_1331
*3150 FILLER_0_126_1337
*3151 FILLER_0_126_1339
*3152 FILLER_0_126_1343
*3153 FILLER_0_126_22
*3154 FILLER_0_126_29
*3155 FILLER_0_126_41
*3156 FILLER_0_126_49
*3157 FILLER_0_126_593
*3158 FILLER_0_126_6
*3159 FILLER_0_126_605
*3160 FILLER_0_126_617
*3161 FILLER_0_126_619
*3162 FILLER_0_126_631
*3163 FILLER_0_126_643
*3164 FILLER_0_126_655
*3165 FILLER_0_127_1201
*3166 FILLER_0_127_1213
*3167 FILLER_0_127_1225
*3168 FILLER_0_127_1237
*3169 FILLER_0_127_1249
*3170 FILLER_0_127_1253
*3171 FILLER_0_127_1255
*3172 FILLER_0_127_1267
*3173 FILLER_0_127_1279
*3174 FILLER_0_127_1291
*3175 FILLER_0_127_1303
*3176 FILLER_0_127_1309
*3177 FILLER_0_127_1311
*3178 FILLER_0_127_1323
*3179 FILLER_0_127_1335
*3180 FILLER_0_127_1343
*3181 FILLER_0_127_15
*3182 FILLER_0_127_27
*3183 FILLER_0_127_3
*3184 FILLER_0_127_39
*3185 FILLER_0_127_47
*3186 FILLER_0_127_593
*3187 FILLER_0_127_605
*3188 FILLER_0_127_617
*3189 FILLER_0_127_629
*3190 FILLER_0_127_641
*3191 FILLER_0_127_645
*3192 FILLER_0_127_647
*3193 FILLER_0_127_655
*3194 FILLER_0_128_1201
*3195 FILLER_0_128_1213
*3196 FILLER_0_128_1225
*3197 FILLER_0_128_1227
*3198 FILLER_0_128_1239
*3199 FILLER_0_128_1251
*3200 FILLER_0_128_1263
*3201 FILLER_0_128_1275
*3202 FILLER_0_128_1281
*3203 FILLER_0_128_1283
*3204 FILLER_0_128_1295
*3205 FILLER_0_128_1307
*3206 FILLER_0_128_1319
*3207 FILLER_0_128_1331
*3208 FILLER_0_128_1337
*3209 FILLER_0_128_1339
*3210 FILLER_0_128_1343
*3211 FILLER_0_128_15
*3212 FILLER_0_128_27
*3213 FILLER_0_128_29
*3214 FILLER_0_128_3
*3215 FILLER_0_128_41
*3216 FILLER_0_128_49
*3217 FILLER_0_128_593
*3218 FILLER_0_128_605
*3219 FILLER_0_128_617
*3220 FILLER_0_128_619
*3221 FILLER_0_128_631
*3222 FILLER_0_128_643
*3223 FILLER_0_128_655
*3224 FILLER_0_129_10
*3225 FILLER_0_129_1201
*3226 FILLER_0_129_1213
*3227 FILLER_0_129_1225
*3228 FILLER_0_129_1237
*3229 FILLER_0_129_1249
*3230 FILLER_0_129_1253
*3231 FILLER_0_129_1255
*3232 FILLER_0_129_1267
*3233 FILLER_0_129_1279
*3234 FILLER_0_129_1291
*3235 FILLER_0_129_1303
*3236 FILLER_0_129_1309
*3237 FILLER_0_129_1311
*3238 FILLER_0_129_1323
*3239 FILLER_0_129_1335
*3240 FILLER_0_129_1343
*3241 FILLER_0_129_22
*3242 FILLER_0_129_34
*3243 FILLER_0_129_46
*3244 FILLER_0_129_593
*3245 FILLER_0_129_6
*3246 FILLER_0_129_605
*3247 FILLER_0_129_617
*3248 FILLER_0_129_629
*3249 FILLER_0_129_641
*3250 FILLER_0_129_645
*3251 FILLER_0_129_647
*3252 FILLER_0_129_655
*3253 FILLER_0_12_1201
*3254 FILLER_0_12_1213
*3255 FILLER_0_12_1225
*3256 FILLER_0_12_1227
*3257 FILLER_0_12_1239
*3258 FILLER_0_12_1251
*3259 FILLER_0_12_1263
*3260 FILLER_0_12_1275
*3261 FILLER_0_12_1281
*3262 FILLER_0_12_1283
*3263 FILLER_0_12_1295
*3264 FILLER_0_12_1307
*3265 FILLER_0_12_1319
*3266 FILLER_0_12_1331
*3267 FILLER_0_12_1337
*3268 FILLER_0_12_1339
*3269 FILLER_0_12_1343
*3270 FILLER_0_12_15
*3271 FILLER_0_12_27
*3272 FILLER_0_12_29
*3273 FILLER_0_12_3
*3274 FILLER_0_12_41
*3275 FILLER_0_12_49
*3276 FILLER_0_12_593
*3277 FILLER_0_12_605
*3278 FILLER_0_12_617
*3279 FILLER_0_12_619
*3280 FILLER_0_12_631
*3281 FILLER_0_12_643
*3282 FILLER_0_12_655
*3283 FILLER_0_130_1201
*3284 FILLER_0_130_1213
*3285 FILLER_0_130_1225
*3286 FILLER_0_130_1227
*3287 FILLER_0_130_1239
*3288 FILLER_0_130_1251
*3289 FILLER_0_130_1263
*3290 FILLER_0_130_1275
*3291 FILLER_0_130_1281
*3292 FILLER_0_130_1283
*3293 FILLER_0_130_1295
*3294 FILLER_0_130_1307
*3295 FILLER_0_130_1319
*3296 FILLER_0_130_1331
*3297 FILLER_0_130_1337
*3298 FILLER_0_130_1339
*3299 FILLER_0_130_1343
*3300 FILLER_0_130_15
*3301 FILLER_0_130_27
*3302 FILLER_0_130_29
*3303 FILLER_0_130_3
*3304 FILLER_0_130_41
*3305 FILLER_0_130_49
*3306 FILLER_0_130_593
*3307 FILLER_0_130_605
*3308 FILLER_0_130_617
*3309 FILLER_0_130_619
*3310 FILLER_0_130_631
*3311 FILLER_0_130_643
*3312 FILLER_0_130_655
*3313 FILLER_0_131_1201
*3314 FILLER_0_131_1213
*3315 FILLER_0_131_1225
*3316 FILLER_0_131_1237
*3317 FILLER_0_131_1249
*3318 FILLER_0_131_1253
*3319 FILLER_0_131_1255
*3320 FILLER_0_131_1267
*3321 FILLER_0_131_1279
*3322 FILLER_0_131_1291
*3323 FILLER_0_131_1303
*3324 FILLER_0_131_1309
*3325 FILLER_0_131_1311
*3326 FILLER_0_131_1323
*3327 FILLER_0_131_1335
*3328 FILLER_0_131_15
*3329 FILLER_0_131_27
*3330 FILLER_0_131_3
*3331 FILLER_0_131_39
*3332 FILLER_0_131_47
*3333 FILLER_0_131_593
*3334 FILLER_0_131_605
*3335 FILLER_0_131_617
*3336 FILLER_0_131_629
*3337 FILLER_0_131_641
*3338 FILLER_0_131_645
*3339 FILLER_0_131_647
*3340 FILLER_0_131_655
*3341 FILLER_0_132_1201
*3342 FILLER_0_132_1213
*3343 FILLER_0_132_1225
*3344 FILLER_0_132_1227
*3345 FILLER_0_132_1239
*3346 FILLER_0_132_1251
*3347 FILLER_0_132_1263
*3348 FILLER_0_132_1275
*3349 FILLER_0_132_1281
*3350 FILLER_0_132_1283
*3351 FILLER_0_132_1295
*3352 FILLER_0_132_1307
*3353 FILLER_0_132_1319
*3354 FILLER_0_132_1331
*3355 FILLER_0_132_1337
*3356 FILLER_0_132_1339
*3357 FILLER_0_132_1343
*3358 FILLER_0_132_15
*3359 FILLER_0_132_27
*3360 FILLER_0_132_29
*3361 FILLER_0_132_3
*3362 FILLER_0_132_41
*3363 FILLER_0_132_49
*3364 FILLER_0_132_593
*3365 FILLER_0_132_605
*3366 FILLER_0_132_617
*3367 FILLER_0_132_619
*3368 FILLER_0_132_631
*3369 FILLER_0_132_643
*3370 FILLER_0_132_655
*3371 FILLER_0_133_10
*3372 FILLER_0_133_1201
*3373 FILLER_0_133_1213
*3374 FILLER_0_133_1225
*3375 FILLER_0_133_1237
*3376 FILLER_0_133_1249
*3377 FILLER_0_133_1253
*3378 FILLER_0_133_1255
*3379 FILLER_0_133_1267
*3380 FILLER_0_133_1279
*3381 FILLER_0_133_1291
*3382 FILLER_0_133_1303
*3383 FILLER_0_133_1309
*3384 FILLER_0_133_1311
*3385 FILLER_0_133_1323
*3386 FILLER_0_133_1335
*3387 FILLER_0_133_1343
*3388 FILLER_0_133_22
*3389 FILLER_0_133_34
*3390 FILLER_0_133_46
*3391 FILLER_0_133_593
*3392 FILLER_0_133_6
*3393 FILLER_0_133_605
*3394 FILLER_0_133_617
*3395 FILLER_0_133_629
*3396 FILLER_0_133_641
*3397 FILLER_0_133_645
*3398 FILLER_0_133_647
*3399 FILLER_0_133_655
*3400 FILLER_0_134_1201
*3401 FILLER_0_134_1213
*3402 FILLER_0_134_1225
*3403 FILLER_0_134_1227
*3404 FILLER_0_134_1239
*3405 FILLER_0_134_1251
*3406 FILLER_0_134_1263
*3407 FILLER_0_134_1275
*3408 FILLER_0_134_1281
*3409 FILLER_0_134_1283
*3410 FILLER_0_134_1295
*3411 FILLER_0_134_1307
*3412 FILLER_0_134_1319
*3413 FILLER_0_134_1331
*3414 FILLER_0_134_1337
*3415 FILLER_0_134_1339
*3416 FILLER_0_134_1343
*3417 FILLER_0_134_15
*3418 FILLER_0_134_27
*3419 FILLER_0_134_29
*3420 FILLER_0_134_3
*3421 FILLER_0_134_41
*3422 FILLER_0_134_49
*3423 FILLER_0_134_593
*3424 FILLER_0_134_605
*3425 FILLER_0_134_617
*3426 FILLER_0_134_619
*3427 FILLER_0_134_631
*3428 FILLER_0_134_643
*3429 FILLER_0_134_655
*3430 FILLER_0_135_1201
*3431 FILLER_0_135_1213
*3432 FILLER_0_135_1225
*3433 FILLER_0_135_1237
*3434 FILLER_0_135_1249
*3435 FILLER_0_135_1253
*3436 FILLER_0_135_1255
*3437 FILLER_0_135_1267
*3438 FILLER_0_135_1279
*3439 FILLER_0_135_1291
*3440 FILLER_0_135_1303
*3441 FILLER_0_135_1309
*3442 FILLER_0_135_1311
*3443 FILLER_0_135_1323
*3444 FILLER_0_135_1335
*3445 FILLER_0_135_1343
*3446 FILLER_0_135_15
*3447 FILLER_0_135_27
*3448 FILLER_0_135_3
*3449 FILLER_0_135_39
*3450 FILLER_0_135_47
*3451 FILLER_0_135_593
*3452 FILLER_0_135_605
*3453 FILLER_0_135_617
*3454 FILLER_0_135_629
*3455 FILLER_0_135_641
*3456 FILLER_0_135_645
*3457 FILLER_0_135_647
*3458 FILLER_0_135_655
*3459 FILLER_0_136_10
*3460 FILLER_0_136_1201
*3461 FILLER_0_136_1213
*3462 FILLER_0_136_1225
*3463 FILLER_0_136_1227
*3464 FILLER_0_136_1239
*3465 FILLER_0_136_1251
*3466 FILLER_0_136_1263
*3467 FILLER_0_136_1275
*3468 FILLER_0_136_1281
*3469 FILLER_0_136_1283
*3470 FILLER_0_136_1295
*3471 FILLER_0_136_1307
*3472 FILLER_0_136_1319
*3473 FILLER_0_136_1331
*3474 FILLER_0_136_1337
*3475 FILLER_0_136_1339
*3476 FILLER_0_136_1343
*3477 FILLER_0_136_22
*3478 FILLER_0_136_29
*3479 FILLER_0_136_41
*3480 FILLER_0_136_49
*3481 FILLER_0_136_593
*3482 FILLER_0_136_6
*3483 FILLER_0_136_605
*3484 FILLER_0_136_617
*3485 FILLER_0_136_619
*3486 FILLER_0_136_631
*3487 FILLER_0_136_643
*3488 FILLER_0_136_655
*3489 FILLER_0_137_1201
*3490 FILLER_0_137_1213
*3491 FILLER_0_137_1225
*3492 FILLER_0_137_1237
*3493 FILLER_0_137_1249
*3494 FILLER_0_137_1253
*3495 FILLER_0_137_1255
*3496 FILLER_0_137_1267
*3497 FILLER_0_137_1279
*3498 FILLER_0_137_1291
*3499 FILLER_0_137_1303
*3500 FILLER_0_137_1309
*3501 FILLER_0_137_1311
*3502 FILLER_0_137_1323
*3503 FILLER_0_137_1335
*3504 FILLER_0_137_15
*3505 FILLER_0_137_27
*3506 FILLER_0_137_3
*3507 FILLER_0_137_39
*3508 FILLER_0_137_47
*3509 FILLER_0_137_593
*3510 FILLER_0_137_605
*3511 FILLER_0_137_617
*3512 FILLER_0_137_629
*3513 FILLER_0_137_641
*3514 FILLER_0_137_645
*3515 FILLER_0_137_647
*3516 FILLER_0_137_655
*3517 FILLER_0_138_1201
*3518 FILLER_0_138_1213
*3519 FILLER_0_138_1225
*3520 FILLER_0_138_1227
*3521 FILLER_0_138_1239
*3522 FILLER_0_138_1251
*3523 FILLER_0_138_1263
*3524 FILLER_0_138_1275
*3525 FILLER_0_138_1281
*3526 FILLER_0_138_1283
*3527 FILLER_0_138_1295
*3528 FILLER_0_138_1307
*3529 FILLER_0_138_1319
*3530 FILLER_0_138_1331
*3531 FILLER_0_138_1337
*3532 FILLER_0_138_1339
*3533 FILLER_0_138_1343
*3534 FILLER_0_138_15
*3535 FILLER_0_138_27
*3536 FILLER_0_138_29
*3537 FILLER_0_138_3
*3538 FILLER_0_138_41
*3539 FILLER_0_138_49
*3540 FILLER_0_138_593
*3541 FILLER_0_138_605
*3542 FILLER_0_138_617
*3543 FILLER_0_138_619
*3544 FILLER_0_138_631
*3545 FILLER_0_138_643
*3546 FILLER_0_138_655
*3547 FILLER_0_139_1201
*3548 FILLER_0_139_1213
*3549 FILLER_0_139_1225
*3550 FILLER_0_139_1237
*3551 FILLER_0_139_1249
*3552 FILLER_0_139_1253
*3553 FILLER_0_139_1255
*3554 FILLER_0_139_1267
*3555 FILLER_0_139_1279
*3556 FILLER_0_139_1291
*3557 FILLER_0_139_1303
*3558 FILLER_0_139_1309
*3559 FILLER_0_139_1311
*3560 FILLER_0_139_1323
*3561 FILLER_0_139_1335
*3562 FILLER_0_139_1343
*3563 FILLER_0_139_15
*3564 FILLER_0_139_27
*3565 FILLER_0_139_3
*3566 FILLER_0_139_39
*3567 FILLER_0_139_47
*3568 FILLER_0_139_593
*3569 FILLER_0_139_605
*3570 FILLER_0_139_617
*3571 FILLER_0_139_629
*3572 FILLER_0_139_641
*3573 FILLER_0_139_645
*3574 FILLER_0_139_647
*3575 FILLER_0_139_655
*3576 FILLER_0_13_1201
*3577 FILLER_0_13_1213
*3578 FILLER_0_13_1225
*3579 FILLER_0_13_1237
*3580 FILLER_0_13_1249
*3581 FILLER_0_13_1253
*3582 FILLER_0_13_1255
*3583 FILLER_0_13_1267
*3584 FILLER_0_13_1279
*3585 FILLER_0_13_1291
*3586 FILLER_0_13_1303
*3587 FILLER_0_13_1309
*3588 FILLER_0_13_1311
*3589 FILLER_0_13_1323
*3590 FILLER_0_13_1335
*3591 FILLER_0_13_1343
*3592 FILLER_0_13_15
*3593 FILLER_0_13_27
*3594 FILLER_0_13_3
*3595 FILLER_0_13_39
*3596 FILLER_0_13_47
*3597 FILLER_0_13_593
*3598 FILLER_0_13_605
*3599 FILLER_0_13_617
*3600 FILLER_0_13_629
*3601 FILLER_0_13_641
*3602 FILLER_0_13_645
*3603 FILLER_0_13_647
*3604 FILLER_0_140_10
*3605 FILLER_0_140_1201
*3606 FILLER_0_140_1213
*3607 FILLER_0_140_1225
*3608 FILLER_0_140_1227
*3609 FILLER_0_140_1239
*3610 FILLER_0_140_1251
*3611 FILLER_0_140_1263
*3612 FILLER_0_140_1275
*3613 FILLER_0_140_1281
*3614 FILLER_0_140_1283
*3615 FILLER_0_140_1295
*3616 FILLER_0_140_1307
*3617 FILLER_0_140_1319
*3618 FILLER_0_140_1331
*3619 FILLER_0_140_1337
*3620 FILLER_0_140_1339
*3621 FILLER_0_140_1343
*3622 FILLER_0_140_22
*3623 FILLER_0_140_29
*3624 FILLER_0_140_41
*3625 FILLER_0_140_49
*3626 FILLER_0_140_593
*3627 FILLER_0_140_6
*3628 FILLER_0_140_605
*3629 FILLER_0_140_617
*3630 FILLER_0_140_619
*3631 FILLER_0_140_631
*3632 FILLER_0_140_643
*3633 FILLER_0_140_655
*3634 FILLER_0_141_1201
*3635 FILLER_0_141_1213
*3636 FILLER_0_141_1225
*3637 FILLER_0_141_1237
*3638 FILLER_0_141_1249
*3639 FILLER_0_141_1253
*3640 FILLER_0_141_1255
*3641 FILLER_0_141_1267
*3642 FILLER_0_141_1279
*3643 FILLER_0_141_1291
*3644 FILLER_0_141_1303
*3645 FILLER_0_141_1309
*3646 FILLER_0_141_1311
*3647 FILLER_0_141_1323
*3648 FILLER_0_141_1335
*3649 FILLER_0_141_1343
*3650 FILLER_0_141_15
*3651 FILLER_0_141_27
*3652 FILLER_0_141_3
*3653 FILLER_0_141_39
*3654 FILLER_0_141_47
*3655 FILLER_0_141_593
*3656 FILLER_0_141_605
*3657 FILLER_0_141_617
*3658 FILLER_0_141_629
*3659 FILLER_0_141_641
*3660 FILLER_0_141_645
*3661 FILLER_0_141_647
*3662 FILLER_0_141_655
*3663 FILLER_0_142_1201
*3664 FILLER_0_142_1213
*3665 FILLER_0_142_1225
*3666 FILLER_0_142_1227
*3667 FILLER_0_142_1239
*3668 FILLER_0_142_1251
*3669 FILLER_0_142_1263
*3670 FILLER_0_142_1275
*3671 FILLER_0_142_1281
*3672 FILLER_0_142_1283
*3673 FILLER_0_142_1295
*3674 FILLER_0_142_1307
*3675 FILLER_0_142_1319
*3676 FILLER_0_142_1331
*3677 FILLER_0_142_1337
*3678 FILLER_0_142_1339
*3679 FILLER_0_142_1343
*3680 FILLER_0_142_15
*3681 FILLER_0_142_27
*3682 FILLER_0_142_29
*3683 FILLER_0_142_3
*3684 FILLER_0_142_41
*3685 FILLER_0_142_49
*3686 FILLER_0_142_593
*3687 FILLER_0_142_605
*3688 FILLER_0_142_617
*3689 FILLER_0_142_619
*3690 FILLER_0_142_631
*3691 FILLER_0_142_643
*3692 FILLER_0_142_655
*3693 FILLER_0_143_10
*3694 FILLER_0_143_1201
*3695 FILLER_0_143_1213
*3696 FILLER_0_143_1225
*3697 FILLER_0_143_1237
*3698 FILLER_0_143_1249
*3699 FILLER_0_143_1253
*3700 FILLER_0_143_1255
*3701 FILLER_0_143_1267
*3702 FILLER_0_143_1279
*3703 FILLER_0_143_1291
*3704 FILLER_0_143_1303
*3705 FILLER_0_143_1309
*3706 FILLER_0_143_1311
*3707 FILLER_0_143_1323
*3708 FILLER_0_143_1335
*3709 FILLER_0_143_22
*3710 FILLER_0_143_34
*3711 FILLER_0_143_46
*3712 FILLER_0_143_593
*3713 FILLER_0_143_6
*3714 FILLER_0_143_605
*3715 FILLER_0_143_617
*3716 FILLER_0_143_629
*3717 FILLER_0_143_641
*3718 FILLER_0_143_645
*3719 FILLER_0_143_647
*3720 FILLER_0_143_655
*3721 FILLER_0_144_1201
*3722 FILLER_0_144_1213
*3723 FILLER_0_144_1225
*3724 FILLER_0_144_1227
*3725 FILLER_0_144_1239
*3726 FILLER_0_144_1251
*3727 FILLER_0_144_1263
*3728 FILLER_0_144_1275
*3729 FILLER_0_144_1281
*3730 FILLER_0_144_1283
*3731 FILLER_0_144_1295
*3732 FILLER_0_144_1307
*3733 FILLER_0_144_1319
*3734 FILLER_0_144_1331
*3735 FILLER_0_144_1337
*3736 FILLER_0_144_1339
*3737 FILLER_0_144_1343
*3738 FILLER_0_144_15
*3739 FILLER_0_144_27
*3740 FILLER_0_144_29
*3741 FILLER_0_144_3
*3742 FILLER_0_144_41
*3743 FILLER_0_144_49
*3744 FILLER_0_144_593
*3745 FILLER_0_144_605
*3746 FILLER_0_144_617
*3747 FILLER_0_144_619
*3748 FILLER_0_144_631
*3749 FILLER_0_144_643
*3750 FILLER_0_144_655
*3751 FILLER_0_145_1201
*3752 FILLER_0_145_1213
*3753 FILLER_0_145_1225
*3754 FILLER_0_145_1237
*3755 FILLER_0_145_1249
*3756 FILLER_0_145_1253
*3757 FILLER_0_145_1255
*3758 FILLER_0_145_1267
*3759 FILLER_0_145_1279
*3760 FILLER_0_145_1291
*3761 FILLER_0_145_1303
*3762 FILLER_0_145_1309
*3763 FILLER_0_145_1311
*3764 FILLER_0_145_1323
*3765 FILLER_0_145_1335
*3766 FILLER_0_145_1343
*3767 FILLER_0_145_15
*3768 FILLER_0_145_27
*3769 FILLER_0_145_3
*3770 FILLER_0_145_39
*3771 FILLER_0_145_47
*3772 FILLER_0_145_593
*3773 FILLER_0_145_605
*3774 FILLER_0_145_617
*3775 FILLER_0_145_629
*3776 FILLER_0_145_641
*3777 FILLER_0_145_645
*3778 FILLER_0_145_647
*3779 FILLER_0_145_655
*3780 FILLER_0_146_1201
*3781 FILLER_0_146_1213
*3782 FILLER_0_146_1225
*3783 FILLER_0_146_1227
*3784 FILLER_0_146_1239
*3785 FILLER_0_146_1251
*3786 FILLER_0_146_1263
*3787 FILLER_0_146_1275
*3788 FILLER_0_146_1281
*3789 FILLER_0_146_1283
*3790 FILLER_0_146_1295
*3791 FILLER_0_146_1307
*3792 FILLER_0_146_1319
*3793 FILLER_0_146_1331
*3794 FILLER_0_146_1337
*3795 FILLER_0_146_1339
*3796 FILLER_0_146_1343
*3797 FILLER_0_146_15
*3798 FILLER_0_146_27
*3799 FILLER_0_146_29
*3800 FILLER_0_146_3
*3801 FILLER_0_146_41
*3802 FILLER_0_146_49
*3803 FILLER_0_146_593
*3804 FILLER_0_146_605
*3805 FILLER_0_146_617
*3806 FILLER_0_146_619
*3807 FILLER_0_146_631
*3808 FILLER_0_146_643
*3809 FILLER_0_146_655
*3810 FILLER_0_147_10
*3811 FILLER_0_147_1201
*3812 FILLER_0_147_1213
*3813 FILLER_0_147_1225
*3814 FILLER_0_147_1237
*3815 FILLER_0_147_1249
*3816 FILLER_0_147_1253
*3817 FILLER_0_147_1255
*3818 FILLER_0_147_1267
*3819 FILLER_0_147_1279
*3820 FILLER_0_147_1291
*3821 FILLER_0_147_1303
*3822 FILLER_0_147_1309
*3823 FILLER_0_147_1311
*3824 FILLER_0_147_1323
*3825 FILLER_0_147_1335
*3826 FILLER_0_147_1343
*3827 FILLER_0_147_22
*3828 FILLER_0_147_34
*3829 FILLER_0_147_46
*3830 FILLER_0_147_593
*3831 FILLER_0_147_6
*3832 FILLER_0_147_605
*3833 FILLER_0_147_617
*3834 FILLER_0_147_629
*3835 FILLER_0_147_641
*3836 FILLER_0_147_645
*3837 FILLER_0_147_647
*3838 FILLER_0_147_655
*3839 FILLER_0_148_1201
*3840 FILLER_0_148_1213
*3841 FILLER_0_148_1225
*3842 FILLER_0_148_1227
*3843 FILLER_0_148_1239
*3844 FILLER_0_148_1251
*3845 FILLER_0_148_1263
*3846 FILLER_0_148_1275
*3847 FILLER_0_148_1281
*3848 FILLER_0_148_1283
*3849 FILLER_0_148_1295
*3850 FILLER_0_148_1307
*3851 FILLER_0_148_1319
*3852 FILLER_0_148_1331
*3853 FILLER_0_148_1337
*3854 FILLER_0_148_1339
*3855 FILLER_0_148_1343
*3856 FILLER_0_148_15
*3857 FILLER_0_148_27
*3858 FILLER_0_148_29
*3859 FILLER_0_148_3
*3860 FILLER_0_148_41
*3861 FILLER_0_148_49
*3862 FILLER_0_148_593
*3863 FILLER_0_148_605
*3864 FILLER_0_148_617
*3865 FILLER_0_148_619
*3866 FILLER_0_148_631
*3867 FILLER_0_148_643
*3868 FILLER_0_148_655
*3869 FILLER_0_149_1201
*3870 FILLER_0_149_1213
*3871 FILLER_0_149_1225
*3872 FILLER_0_149_1237
*3873 FILLER_0_149_1249
*3874 FILLER_0_149_1253
*3875 FILLER_0_149_1255
*3876 FILLER_0_149_1267
*3877 FILLER_0_149_1279
*3878 FILLER_0_149_1291
*3879 FILLER_0_149_1303
*3880 FILLER_0_149_1309
*3881 FILLER_0_149_1311
*3882 FILLER_0_149_1323
*3883 FILLER_0_149_1335
*3884 FILLER_0_149_15
*3885 FILLER_0_149_27
*3886 FILLER_0_149_3
*3887 FILLER_0_149_39
*3888 FILLER_0_149_47
*3889 FILLER_0_149_593
*3890 FILLER_0_149_605
*3891 FILLER_0_149_617
*3892 FILLER_0_149_629
*3893 FILLER_0_149_641
*3894 FILLER_0_149_645
*3895 FILLER_0_149_647
*3896 FILLER_0_149_655
*3897 FILLER_0_14_1201
*3898 FILLER_0_14_1213
*3899 FILLER_0_14_1225
*3900 FILLER_0_14_1227
*3901 FILLER_0_14_1239
*3902 FILLER_0_14_1251
*3903 FILLER_0_14_1263
*3904 FILLER_0_14_1275
*3905 FILLER_0_14_1281
*3906 FILLER_0_14_1283
*3907 FILLER_0_14_1295
*3908 FILLER_0_14_13
*3909 FILLER_0_14_1307
*3910 FILLER_0_14_1319
*3911 FILLER_0_14_1331
*3912 FILLER_0_14_1337
*3913 FILLER_0_14_1339
*3914 FILLER_0_14_1343
*3915 FILLER_0_14_25
*3916 FILLER_0_14_29
*3917 FILLER_0_14_41
*3918 FILLER_0_14_49
*3919 FILLER_0_14_593
*3920 FILLER_0_14_605
*3921 FILLER_0_14_617
*3922 FILLER_0_14_619
*3923 FILLER_0_14_631
*3924 FILLER_0_14_643
*3925 FILLER_0_14_655
*3926 FILLER_0_14_9
*3927 FILLER_0_150_10
*3928 FILLER_0_150_1201
*3929 FILLER_0_150_1213
*3930 FILLER_0_150_1225
*3931 FILLER_0_150_1227
*3932 FILLER_0_150_1239
*3933 FILLER_0_150_1251
*3934 FILLER_0_150_1263
*3935 FILLER_0_150_1275
*3936 FILLER_0_150_1281
*3937 FILLER_0_150_1283
*3938 FILLER_0_150_1295
*3939 FILLER_0_150_1307
*3940 FILLER_0_150_1319
*3941 FILLER_0_150_1331
*3942 FILLER_0_150_1337
*3943 FILLER_0_150_1339
*3944 FILLER_0_150_1343
*3945 FILLER_0_150_22
*3946 FILLER_0_150_29
*3947 FILLER_0_150_41
*3948 FILLER_0_150_49
*3949 FILLER_0_150_593
*3950 FILLER_0_150_6
*3951 FILLER_0_150_605
*3952 FILLER_0_150_617
*3953 FILLER_0_150_619
*3954 FILLER_0_150_631
*3955 FILLER_0_150_643
*3956 FILLER_0_150_655
*3957 FILLER_0_151_1201
*3958 FILLER_0_151_1213
*3959 FILLER_0_151_1225
*3960 FILLER_0_151_1237
*3961 FILLER_0_151_1249
*3962 FILLER_0_151_1253
*3963 FILLER_0_151_1255
*3964 FILLER_0_151_1267
*3965 FILLER_0_151_1279
*3966 FILLER_0_151_1291
*3967 FILLER_0_151_1303
*3968 FILLER_0_151_1309
*3969 FILLER_0_151_1311
*3970 FILLER_0_151_1323
*3971 FILLER_0_151_1335
*3972 FILLER_0_151_1343
*3973 FILLER_0_151_15
*3974 FILLER_0_151_27
*3975 FILLER_0_151_3
*3976 FILLER_0_151_39
*3977 FILLER_0_151_47
*3978 FILLER_0_151_593
*3979 FILLER_0_151_605
*3980 FILLER_0_151_617
*3981 FILLER_0_151_629
*3982 FILLER_0_151_641
*3983 FILLER_0_151_645
*3984 FILLER_0_151_647
*3985 FILLER_0_151_655
*3986 FILLER_0_152_1201
*3987 FILLER_0_152_1213
*3988 FILLER_0_152_1225
*3989 FILLER_0_152_1227
*3990 FILLER_0_152_1239
*3991 FILLER_0_152_1251
*3992 FILLER_0_152_1263
*3993 FILLER_0_152_1275
*3994 FILLER_0_152_1281
*3995 FILLER_0_152_1283
*3996 FILLER_0_152_1295
*3997 FILLER_0_152_1307
*3998 FILLER_0_152_1319
*3999 FILLER_0_152_1331
*4000 FILLER_0_152_1337
*4001 FILLER_0_152_1339
*4002 FILLER_0_152_1343
*4003 FILLER_0_152_15
*4004 FILLER_0_152_27
*4005 FILLER_0_152_29
*4006 FILLER_0_152_3
*4007 FILLER_0_152_41
*4008 FILLER_0_152_49
*4009 FILLER_0_152_593
*4010 FILLER_0_152_605
*4011 FILLER_0_152_617
*4012 FILLER_0_152_619
*4013 FILLER_0_152_631
*4014 FILLER_0_152_643
*4015 FILLER_0_152_655
*4016 FILLER_0_153_1201
*4017 FILLER_0_153_1213
*4018 FILLER_0_153_1225
*4019 FILLER_0_153_1237
*4020 FILLER_0_153_1249
*4021 FILLER_0_153_1253
*4022 FILLER_0_153_1255
*4023 FILLER_0_153_1267
*4024 FILLER_0_153_1279
*4025 FILLER_0_153_1291
*4026 FILLER_0_153_1303
*4027 FILLER_0_153_1309
*4028 FILLER_0_153_1311
*4029 FILLER_0_153_1323
*4030 FILLER_0_153_1335
*4031 FILLER_0_153_1343
*4032 FILLER_0_153_15
*4033 FILLER_0_153_27
*4034 FILLER_0_153_3
*4035 FILLER_0_153_39
*4036 FILLER_0_153_47
*4037 FILLER_0_153_593
*4038 FILLER_0_153_605
*4039 FILLER_0_153_617
*4040 FILLER_0_153_629
*4041 FILLER_0_153_641
*4042 FILLER_0_153_645
*4043 FILLER_0_153_647
*4044 FILLER_0_153_655
*4045 FILLER_0_154_10
*4046 FILLER_0_154_1201
*4047 FILLER_0_154_1213
*4048 FILLER_0_154_1225
*4049 FILLER_0_154_1227
*4050 FILLER_0_154_1239
*4051 FILLER_0_154_1251
*4052 FILLER_0_154_1263
*4053 FILLER_0_154_1275
*4054 FILLER_0_154_1281
*4055 FILLER_0_154_1283
*4056 FILLER_0_154_1295
*4057 FILLER_0_154_1307
*4058 FILLER_0_154_1319
*4059 FILLER_0_154_1331
*4060 FILLER_0_154_1337
*4061 FILLER_0_154_1339
*4062 FILLER_0_154_1343
*4063 FILLER_0_154_22
*4064 FILLER_0_154_29
*4065 FILLER_0_154_41
*4066 FILLER_0_154_49
*4067 FILLER_0_154_593
*4068 FILLER_0_154_6
*4069 FILLER_0_154_605
*4070 FILLER_0_154_617
*4071 FILLER_0_154_619
*4072 FILLER_0_154_631
*4073 FILLER_0_154_643
*4074 FILLER_0_154_655
*4075 FILLER_0_155_1201
*4076 FILLER_0_155_1213
*4077 FILLER_0_155_1225
*4078 FILLER_0_155_1237
*4079 FILLER_0_155_1249
*4080 FILLER_0_155_1253
*4081 FILLER_0_155_1255
*4082 FILLER_0_155_1267
*4083 FILLER_0_155_1279
*4084 FILLER_0_155_1291
*4085 FILLER_0_155_1303
*4086 FILLER_0_155_1309
*4087 FILLER_0_155_1311
*4088 FILLER_0_155_1323
*4089 FILLER_0_155_1335
*4090 FILLER_0_155_15
*4091 FILLER_0_155_27
*4092 FILLER_0_155_3
*4093 FILLER_0_155_39
*4094 FILLER_0_155_47
*4095 FILLER_0_155_593
*4096 FILLER_0_155_605
*4097 FILLER_0_155_617
*4098 FILLER_0_155_629
*4099 FILLER_0_155_641
*4100 FILLER_0_155_645
*4101 FILLER_0_155_647
*4102 FILLER_0_155_655
*4103 FILLER_0_156_1201
*4104 FILLER_0_156_1213
*4105 FILLER_0_156_1225
*4106 FILLER_0_156_1227
*4107 FILLER_0_156_1239
*4108 FILLER_0_156_1251
*4109 FILLER_0_156_1263
*4110 FILLER_0_156_1275
*4111 FILLER_0_156_1281
*4112 FILLER_0_156_1283
*4113 FILLER_0_156_1295
*4114 FILLER_0_156_1307
*4115 FILLER_0_156_1319
*4116 FILLER_0_156_1331
*4117 FILLER_0_156_1337
*4118 FILLER_0_156_1339
*4119 FILLER_0_156_1343
*4120 FILLER_0_156_15
*4121 FILLER_0_156_27
*4122 FILLER_0_156_29
*4123 FILLER_0_156_3
*4124 FILLER_0_156_41
*4125 FILLER_0_156_49
*4126 FILLER_0_156_593
*4127 FILLER_0_156_605
*4128 FILLER_0_156_617
*4129 FILLER_0_156_619
*4130 FILLER_0_156_631
*4131 FILLER_0_156_643
*4132 FILLER_0_156_655
*4133 FILLER_0_157_10
*4134 FILLER_0_157_1201
*4135 FILLER_0_157_1213
*4136 FILLER_0_157_1225
*4137 FILLER_0_157_1237
*4138 FILLER_0_157_1249
*4139 FILLER_0_157_1253
*4140 FILLER_0_157_1255
*4141 FILLER_0_157_1267
*4142 FILLER_0_157_1279
*4143 FILLER_0_157_1291
*4144 FILLER_0_157_1303
*4145 FILLER_0_157_1309
*4146 FILLER_0_157_1311
*4147 FILLER_0_157_1323
*4148 FILLER_0_157_1335
*4149 FILLER_0_157_1343
*4150 FILLER_0_157_22
*4151 FILLER_0_157_34
*4152 FILLER_0_157_46
*4153 FILLER_0_157_593
*4154 FILLER_0_157_6
*4155 FILLER_0_157_605
*4156 FILLER_0_157_617
*4157 FILLER_0_157_629
*4158 FILLER_0_157_641
*4159 FILLER_0_157_645
*4160 FILLER_0_157_647
*4161 FILLER_0_157_655
*4162 FILLER_0_158_1201
*4163 FILLER_0_158_1213
*4164 FILLER_0_158_1225
*4165 FILLER_0_158_1227
*4166 FILLER_0_158_1239
*4167 FILLER_0_158_1251
*4168 FILLER_0_158_1263
*4169 FILLER_0_158_1275
*4170 FILLER_0_158_1281
*4171 FILLER_0_158_1283
*4172 FILLER_0_158_1295
*4173 FILLER_0_158_1307
*4174 FILLER_0_158_1319
*4175 FILLER_0_158_1331
*4176 FILLER_0_158_1337
*4177 FILLER_0_158_1339
*4178 FILLER_0_158_1343
*4179 FILLER_0_158_15
*4180 FILLER_0_158_27
*4181 FILLER_0_158_29
*4182 FILLER_0_158_3
*4183 FILLER_0_158_41
*4184 FILLER_0_158_49
*4185 FILLER_0_158_593
*4186 FILLER_0_158_605
*4187 FILLER_0_158_617
*4188 FILLER_0_158_619
*4189 FILLER_0_158_631
*4190 FILLER_0_158_643
*4191 FILLER_0_158_655
*4192 FILLER_0_159_1201
*4193 FILLER_0_159_1213
*4194 FILLER_0_159_1225
*4195 FILLER_0_159_1237
*4196 FILLER_0_159_1249
*4197 FILLER_0_159_1253
*4198 FILLER_0_159_1255
*4199 FILLER_0_159_1267
*4200 FILLER_0_159_1279
*4201 FILLER_0_159_1291
*4202 FILLER_0_159_1303
*4203 FILLER_0_159_1309
*4204 FILLER_0_159_1311
*4205 FILLER_0_159_1323
*4206 FILLER_0_159_1335
*4207 FILLER_0_159_1343
*4208 FILLER_0_159_15
*4209 FILLER_0_159_27
*4210 FILLER_0_159_3
*4211 FILLER_0_159_39
*4212 FILLER_0_159_47
*4213 FILLER_0_159_593
*4214 FILLER_0_159_605
*4215 FILLER_0_159_617
*4216 FILLER_0_159_629
*4217 FILLER_0_159_641
*4218 FILLER_0_159_645
*4219 FILLER_0_159_647
*4220 FILLER_0_159_655
*4221 FILLER_0_15_1201
*4222 FILLER_0_15_1213
*4223 FILLER_0_15_1225
*4224 FILLER_0_15_1237
*4225 FILLER_0_15_1249
*4226 FILLER_0_15_1253
*4227 FILLER_0_15_1255
*4228 FILLER_0_15_1267
*4229 FILLER_0_15_1279
*4230 FILLER_0_15_1291
*4231 FILLER_0_15_1303
*4232 FILLER_0_15_1309
*4233 FILLER_0_15_1311
*4234 FILLER_0_15_1323
*4235 FILLER_0_15_1335
*4236 FILLER_0_15_1343
*4237 FILLER_0_15_15
*4238 FILLER_0_15_27
*4239 FILLER_0_15_3
*4240 FILLER_0_15_39
*4241 FILLER_0_15_47
*4242 FILLER_0_15_593
*4243 FILLER_0_15_605
*4244 FILLER_0_15_617
*4245 FILLER_0_15_629
*4246 FILLER_0_15_641
*4247 FILLER_0_15_645
*4248 FILLER_0_15_647
*4249 FILLER_0_160_1201
*4250 FILLER_0_160_1213
*4251 FILLER_0_160_1225
*4252 FILLER_0_160_1227
*4253 FILLER_0_160_1239
*4254 FILLER_0_160_1251
*4255 FILLER_0_160_1263
*4256 FILLER_0_160_1275
*4257 FILLER_0_160_1281
*4258 FILLER_0_160_1283
*4259 FILLER_0_160_1295
*4260 FILLER_0_160_1307
*4261 FILLER_0_160_1319
*4262 FILLER_0_160_1331
*4263 FILLER_0_160_1337
*4264 FILLER_0_160_1339
*4265 FILLER_0_160_1343
*4266 FILLER_0_160_15
*4267 FILLER_0_160_27
*4268 FILLER_0_160_29
*4269 FILLER_0_160_3
*4270 FILLER_0_160_41
*4271 FILLER_0_160_49
*4272 FILLER_0_160_593
*4273 FILLER_0_160_605
*4274 FILLER_0_160_617
*4275 FILLER_0_160_619
*4276 FILLER_0_160_631
*4277 FILLER_0_160_643
*4278 FILLER_0_160_655
*4279 FILLER_0_161_10
*4280 FILLER_0_161_1201
*4281 FILLER_0_161_1213
*4282 FILLER_0_161_1225
*4283 FILLER_0_161_1237
*4284 FILLER_0_161_1249
*4285 FILLER_0_161_1253
*4286 FILLER_0_161_1255
*4287 FILLER_0_161_1267
*4288 FILLER_0_161_1279
*4289 FILLER_0_161_1291
*4290 FILLER_0_161_1303
*4291 FILLER_0_161_1309
*4292 FILLER_0_161_1311
*4293 FILLER_0_161_1323
*4294 FILLER_0_161_1335
*4295 FILLER_0_161_22
*4296 FILLER_0_161_34
*4297 FILLER_0_161_46
*4298 FILLER_0_161_593
*4299 FILLER_0_161_6
*4300 FILLER_0_161_605
*4301 FILLER_0_161_617
*4302 FILLER_0_161_629
*4303 FILLER_0_161_641
*4304 FILLER_0_161_645
*4305 FILLER_0_161_647
*4306 FILLER_0_161_655
*4307 FILLER_0_162_1201
*4308 FILLER_0_162_1213
*4309 FILLER_0_162_1225
*4310 FILLER_0_162_1227
*4311 FILLER_0_162_1239
*4312 FILLER_0_162_1251
*4313 FILLER_0_162_1263
*4314 FILLER_0_162_1275
*4315 FILLER_0_162_1281
*4316 FILLER_0_162_1283
*4317 FILLER_0_162_1295
*4318 FILLER_0_162_1307
*4319 FILLER_0_162_1319
*4320 FILLER_0_162_1331
*4321 FILLER_0_162_1337
*4322 FILLER_0_162_1339
*4323 FILLER_0_162_1343
*4324 FILLER_0_162_15
*4325 FILLER_0_162_27
*4326 FILLER_0_162_29
*4327 FILLER_0_162_3
*4328 FILLER_0_162_41
*4329 FILLER_0_162_49
*4330 FILLER_0_162_593
*4331 FILLER_0_162_605
*4332 FILLER_0_162_617
*4333 FILLER_0_162_619
*4334 FILLER_0_162_631
*4335 FILLER_0_162_643
*4336 FILLER_0_162_655
*4337 FILLER_0_163_1201
*4338 FILLER_0_163_1213
*4339 FILLER_0_163_1225
*4340 FILLER_0_163_1237
*4341 FILLER_0_163_1249
*4342 FILLER_0_163_1253
*4343 FILLER_0_163_1255
*4344 FILLER_0_163_1267
*4345 FILLER_0_163_1279
*4346 FILLER_0_163_1291
*4347 FILLER_0_163_1303
*4348 FILLER_0_163_1309
*4349 FILLER_0_163_1311
*4350 FILLER_0_163_1323
*4351 FILLER_0_163_1335
*4352 FILLER_0_163_1343
*4353 FILLER_0_163_15
*4354 FILLER_0_163_27
*4355 FILLER_0_163_3
*4356 FILLER_0_163_39
*4357 FILLER_0_163_47
*4358 FILLER_0_163_593
*4359 FILLER_0_163_605
*4360 FILLER_0_163_617
*4361 FILLER_0_163_629
*4362 FILLER_0_163_641
*4363 FILLER_0_163_645
*4364 FILLER_0_163_647
*4365 FILLER_0_163_655
*4366 FILLER_0_164_10
*4367 FILLER_0_164_1201
*4368 FILLER_0_164_1213
*4369 FILLER_0_164_1225
*4370 FILLER_0_164_1227
*4371 FILLER_0_164_1239
*4372 FILLER_0_164_1251
*4373 FILLER_0_164_1263
*4374 FILLER_0_164_1275
*4375 FILLER_0_164_1281
*4376 FILLER_0_164_1283
*4377 FILLER_0_164_1295
*4378 FILLER_0_164_1307
*4379 FILLER_0_164_1319
*4380 FILLER_0_164_1331
*4381 FILLER_0_164_1337
*4382 FILLER_0_164_1339
*4383 FILLER_0_164_1343
*4384 FILLER_0_164_22
*4385 FILLER_0_164_29
*4386 FILLER_0_164_41
*4387 FILLER_0_164_49
*4388 FILLER_0_164_593
*4389 FILLER_0_164_6
*4390 FILLER_0_164_605
*4391 FILLER_0_164_617
*4392 FILLER_0_164_619
*4393 FILLER_0_164_631
*4394 FILLER_0_164_643
*4395 FILLER_0_164_655
*4396 FILLER_0_165_1201
*4397 FILLER_0_165_1213
*4398 FILLER_0_165_1225
*4399 FILLER_0_165_1237
*4400 FILLER_0_165_1249
*4401 FILLER_0_165_1253
*4402 FILLER_0_165_1255
*4403 FILLER_0_165_1267
*4404 FILLER_0_165_1279
*4405 FILLER_0_165_1291
*4406 FILLER_0_165_1303
*4407 FILLER_0_165_1309
*4408 FILLER_0_165_1311
*4409 FILLER_0_165_1323
*4410 FILLER_0_165_1335
*4411 FILLER_0_165_1343
*4412 FILLER_0_165_15
*4413 FILLER_0_165_27
*4414 FILLER_0_165_3
*4415 FILLER_0_165_39
*4416 FILLER_0_165_47
*4417 FILLER_0_165_593
*4418 FILLER_0_165_605
*4419 FILLER_0_165_617
*4420 FILLER_0_165_629
*4421 FILLER_0_165_641
*4422 FILLER_0_165_645
*4423 FILLER_0_165_647
*4424 FILLER_0_165_655
*4425 FILLER_0_166_1201
*4426 FILLER_0_166_1213
*4427 FILLER_0_166_1225
*4428 FILLER_0_166_1227
*4429 FILLER_0_166_1239
*4430 FILLER_0_166_1251
*4431 FILLER_0_166_1263
*4432 FILLER_0_166_1275
*4433 FILLER_0_166_1281
*4434 FILLER_0_166_1283
*4435 FILLER_0_166_1295
*4436 FILLER_0_166_1307
*4437 FILLER_0_166_1319
*4438 FILLER_0_166_1331
*4439 FILLER_0_166_1337
*4440 FILLER_0_166_1339
*4441 FILLER_0_166_1343
*4442 FILLER_0_166_15
*4443 FILLER_0_166_27
*4444 FILLER_0_166_29
*4445 FILLER_0_166_3
*4446 FILLER_0_166_41
*4447 FILLER_0_166_49
*4448 FILLER_0_166_593
*4449 FILLER_0_166_605
*4450 FILLER_0_166_617
*4451 FILLER_0_166_619
*4452 FILLER_0_166_631
*4453 FILLER_0_166_643
*4454 FILLER_0_166_655
*4455 FILLER_0_167_1201
*4456 FILLER_0_167_1213
*4457 FILLER_0_167_1225
*4458 FILLER_0_167_1237
*4459 FILLER_0_167_1249
*4460 FILLER_0_167_1253
*4461 FILLER_0_167_1255
*4462 FILLER_0_167_1267
*4463 FILLER_0_167_1279
*4464 FILLER_0_167_1291
*4465 FILLER_0_167_1303
*4466 FILLER_0_167_1309
*4467 FILLER_0_167_1311
*4468 FILLER_0_167_1323
*4469 FILLER_0_167_1335
*4470 FILLER_0_167_15
*4471 FILLER_0_167_27
*4472 FILLER_0_167_3
*4473 FILLER_0_167_39
*4474 FILLER_0_167_47
*4475 FILLER_0_167_593
*4476 FILLER_0_167_605
*4477 FILLER_0_167_617
*4478 FILLER_0_167_629
*4479 FILLER_0_167_641
*4480 FILLER_0_167_645
*4481 FILLER_0_167_647
*4482 FILLER_0_167_655
*4483 FILLER_0_168_10
*4484 FILLER_0_168_1201
*4485 FILLER_0_168_1213
*4486 FILLER_0_168_1225
*4487 FILLER_0_168_1227
*4488 FILLER_0_168_1239
*4489 FILLER_0_168_1251
*4490 FILLER_0_168_1263
*4491 FILLER_0_168_1275
*4492 FILLER_0_168_1281
*4493 FILLER_0_168_1283
*4494 FILLER_0_168_1295
*4495 FILLER_0_168_1307
*4496 FILLER_0_168_1319
*4497 FILLER_0_168_1331
*4498 FILLER_0_168_1337
*4499 FILLER_0_168_1339
*4500 FILLER_0_168_1343
*4501 FILLER_0_168_22
*4502 FILLER_0_168_29
*4503 FILLER_0_168_41
*4504 FILLER_0_168_49
*4505 FILLER_0_168_593
*4506 FILLER_0_168_6
*4507 FILLER_0_168_605
*4508 FILLER_0_168_617
*4509 FILLER_0_168_619
*4510 FILLER_0_168_631
*4511 FILLER_0_168_643
*4512 FILLER_0_168_655
*4513 FILLER_0_169_1201
*4514 FILLER_0_169_1213
*4515 FILLER_0_169_1225
*4516 FILLER_0_169_1237
*4517 FILLER_0_169_1249
*4518 FILLER_0_169_1253
*4519 FILLER_0_169_1255
*4520 FILLER_0_169_1267
*4521 FILLER_0_169_1279
*4522 FILLER_0_169_1291
*4523 FILLER_0_169_1303
*4524 FILLER_0_169_1309
*4525 FILLER_0_169_1311
*4526 FILLER_0_169_1323
*4527 FILLER_0_169_1335
*4528 FILLER_0_169_1343
*4529 FILLER_0_169_15
*4530 FILLER_0_169_27
*4531 FILLER_0_169_3
*4532 FILLER_0_169_39
*4533 FILLER_0_169_47
*4534 FILLER_0_169_593
*4535 FILLER_0_169_605
*4536 FILLER_0_169_617
*4537 FILLER_0_169_629
*4538 FILLER_0_169_641
*4539 FILLER_0_169_645
*4540 FILLER_0_169_647
*4541 FILLER_0_169_655
*4542 FILLER_0_16_1201
*4543 FILLER_0_16_1213
*4544 FILLER_0_16_1225
*4545 FILLER_0_16_1227
*4546 FILLER_0_16_1239
*4547 FILLER_0_16_1251
*4548 FILLER_0_16_1263
*4549 FILLER_0_16_1275
*4550 FILLER_0_16_1281
*4551 FILLER_0_16_1283
*4552 FILLER_0_16_1295
*4553 FILLER_0_16_1307
*4554 FILLER_0_16_1319
*4555 FILLER_0_16_1331
*4556 FILLER_0_16_1337
*4557 FILLER_0_16_1339
*4558 FILLER_0_16_15
*4559 FILLER_0_16_27
*4560 FILLER_0_16_29
*4561 FILLER_0_16_3
*4562 FILLER_0_16_41
*4563 FILLER_0_16_49
*4564 FILLER_0_16_593
*4565 FILLER_0_16_605
*4566 FILLER_0_16_617
*4567 FILLER_0_16_619
*4568 FILLER_0_16_631
*4569 FILLER_0_16_643
*4570 FILLER_0_16_655
*4571 FILLER_0_170_1201
*4572 FILLER_0_170_1213
*4573 FILLER_0_170_1225
*4574 FILLER_0_170_1227
*4575 FILLER_0_170_1239
*4576 FILLER_0_170_1251
*4577 FILLER_0_170_1263
*4578 FILLER_0_170_1275
*4579 FILLER_0_170_1281
*4580 FILLER_0_170_1283
*4581 FILLER_0_170_1295
*4582 FILLER_0_170_1307
*4583 FILLER_0_170_1319
*4584 FILLER_0_170_1331
*4585 FILLER_0_170_1337
*4586 FILLER_0_170_1339
*4587 FILLER_0_170_1343
*4588 FILLER_0_170_15
*4589 FILLER_0_170_27
*4590 FILLER_0_170_29
*4591 FILLER_0_170_3
*4592 FILLER_0_170_41
*4593 FILLER_0_170_49
*4594 FILLER_0_170_593
*4595 FILLER_0_170_605
*4596 FILLER_0_170_617
*4597 FILLER_0_170_619
*4598 FILLER_0_170_631
*4599 FILLER_0_170_643
*4600 FILLER_0_170_655
*4601 FILLER_0_171_10
*4602 FILLER_0_171_1201
*4603 FILLER_0_171_1213
*4604 FILLER_0_171_1225
*4605 FILLER_0_171_1237
*4606 FILLER_0_171_1249
*4607 FILLER_0_171_1253
*4608 FILLER_0_171_1255
*4609 FILLER_0_171_1267
*4610 FILLER_0_171_1279
*4611 FILLER_0_171_1291
*4612 FILLER_0_171_1303
*4613 FILLER_0_171_1309
*4614 FILLER_0_171_1311
*4615 FILLER_0_171_1323
*4616 FILLER_0_171_1335
*4617 FILLER_0_171_1343
*4618 FILLER_0_171_22
*4619 FILLER_0_171_34
*4620 FILLER_0_171_46
*4621 FILLER_0_171_593
*4622 FILLER_0_171_6
*4623 FILLER_0_171_605
*4624 FILLER_0_171_617
*4625 FILLER_0_171_629
*4626 FILLER_0_171_641
*4627 FILLER_0_171_645
*4628 FILLER_0_171_647
*4629 FILLER_0_171_655
*4630 FILLER_0_172_1201
*4631 FILLER_0_172_1213
*4632 FILLER_0_172_1225
*4633 FILLER_0_172_1227
*4634 FILLER_0_172_1239
*4635 FILLER_0_172_1251
*4636 FILLER_0_172_1263
*4637 FILLER_0_172_1275
*4638 FILLER_0_172_1281
*4639 FILLER_0_172_1283
*4640 FILLER_0_172_1295
*4641 FILLER_0_172_1307
*4642 FILLER_0_172_1319
*4643 FILLER_0_172_1331
*4644 FILLER_0_172_1337
*4645 FILLER_0_172_1339
*4646 FILLER_0_172_1343
*4647 FILLER_0_172_15
*4648 FILLER_0_172_27
*4649 FILLER_0_172_29
*4650 FILLER_0_172_3
*4651 FILLER_0_172_41
*4652 FILLER_0_172_49
*4653 FILLER_0_172_593
*4654 FILLER_0_172_605
*4655 FILLER_0_172_617
*4656 FILLER_0_172_619
*4657 FILLER_0_172_631
*4658 FILLER_0_172_643
*4659 FILLER_0_172_655
*4660 FILLER_0_173_1201
*4661 FILLER_0_173_1213
*4662 FILLER_0_173_1225
*4663 FILLER_0_173_1237
*4664 FILLER_0_173_1249
*4665 FILLER_0_173_1253
*4666 FILLER_0_173_1255
*4667 FILLER_0_173_1267
*4668 FILLER_0_173_1279
*4669 FILLER_0_173_1291
*4670 FILLER_0_173_1303
*4671 FILLER_0_173_1309
*4672 FILLER_0_173_1311
*4673 FILLER_0_173_1323
*4674 FILLER_0_173_1335
*4675 FILLER_0_173_15
*4676 FILLER_0_173_27
*4677 FILLER_0_173_3
*4678 FILLER_0_173_39
*4679 FILLER_0_173_47
*4680 FILLER_0_173_593
*4681 FILLER_0_173_605
*4682 FILLER_0_173_617
*4683 FILLER_0_173_629
*4684 FILLER_0_173_641
*4685 FILLER_0_173_645
*4686 FILLER_0_173_647
*4687 FILLER_0_173_655
*4688 FILLER_0_174_1201
*4689 FILLER_0_174_1213
*4690 FILLER_0_174_1225
*4691 FILLER_0_174_1227
*4692 FILLER_0_174_1239
*4693 FILLER_0_174_1251
*4694 FILLER_0_174_1263
*4695 FILLER_0_174_1275
*4696 FILLER_0_174_1281
*4697 FILLER_0_174_1283
*4698 FILLER_0_174_1295
*4699 FILLER_0_174_1307
*4700 FILLER_0_174_1319
*4701 FILLER_0_174_1331
*4702 FILLER_0_174_1337
*4703 FILLER_0_174_1339
*4704 FILLER_0_174_1343
*4705 FILLER_0_174_15
*4706 FILLER_0_174_27
*4707 FILLER_0_174_29
*4708 FILLER_0_174_3
*4709 FILLER_0_174_41
*4710 FILLER_0_174_49
*4711 FILLER_0_174_593
*4712 FILLER_0_174_605
*4713 FILLER_0_174_617
*4714 FILLER_0_174_619
*4715 FILLER_0_174_631
*4716 FILLER_0_174_643
*4717 FILLER_0_174_655
*4718 FILLER_0_175_1201
*4719 FILLER_0_175_1213
*4720 FILLER_0_175_1225
*4721 FILLER_0_175_1237
*4722 FILLER_0_175_1249
*4723 FILLER_0_175_1253
*4724 FILLER_0_175_1255
*4725 FILLER_0_175_1267
*4726 FILLER_0_175_1279
*4727 FILLER_0_175_1291
*4728 FILLER_0_175_13
*4729 FILLER_0_175_1303
*4730 FILLER_0_175_1309
*4731 FILLER_0_175_1311
*4732 FILLER_0_175_1323
*4733 FILLER_0_175_1335
*4734 FILLER_0_175_1343
*4735 FILLER_0_175_25
*4736 FILLER_0_175_37
*4737 FILLER_0_175_45
*4738 FILLER_0_175_593
*4739 FILLER_0_175_605
*4740 FILLER_0_175_617
*4741 FILLER_0_175_629
*4742 FILLER_0_175_641
*4743 FILLER_0_175_645
*4744 FILLER_0_175_647
*4745 FILLER_0_175_655
*4746 FILLER_0_175_9
*4747 FILLER_0_176_1201
*4748 FILLER_0_176_1213
*4749 FILLER_0_176_1225
*4750 FILLER_0_176_1227
*4751 FILLER_0_176_1239
*4752 FILLER_0_176_1251
*4753 FILLER_0_176_1263
*4754 FILLER_0_176_1275
*4755 FILLER_0_176_1281
*4756 FILLER_0_176_1283
*4757 FILLER_0_176_1295
*4758 FILLER_0_176_1307
*4759 FILLER_0_176_1319
*4760 FILLER_0_176_1331
*4761 FILLER_0_176_1337
*4762 FILLER_0_176_1339
*4763 FILLER_0_176_1343
*4764 FILLER_0_176_15
*4765 FILLER_0_176_27
*4766 FILLER_0_176_29
*4767 FILLER_0_176_3
*4768 FILLER_0_176_41
*4769 FILLER_0_176_49
*4770 FILLER_0_176_593
*4771 FILLER_0_176_605
*4772 FILLER_0_176_617
*4773 FILLER_0_176_619
*4774 FILLER_0_176_631
*4775 FILLER_0_176_643
*4776 FILLER_0_176_655
*4777 FILLER_0_177_1201
*4778 FILLER_0_177_1213
*4779 FILLER_0_177_1225
*4780 FILLER_0_177_1237
*4781 FILLER_0_177_1249
*4782 FILLER_0_177_1253
*4783 FILLER_0_177_1255
*4784 FILLER_0_177_1267
*4785 FILLER_0_177_1279
*4786 FILLER_0_177_1291
*4787 FILLER_0_177_1303
*4788 FILLER_0_177_1309
*4789 FILLER_0_177_1311
*4790 FILLER_0_177_1323
*4791 FILLER_0_177_1335
*4792 FILLER_0_177_1343
*4793 FILLER_0_177_15
*4794 FILLER_0_177_27
*4795 FILLER_0_177_3
*4796 FILLER_0_177_39
*4797 FILLER_0_177_47
*4798 FILLER_0_177_593
*4799 FILLER_0_177_605
*4800 FILLER_0_177_617
*4801 FILLER_0_177_629
*4802 FILLER_0_177_641
*4803 FILLER_0_177_645
*4804 FILLER_0_177_647
*4805 FILLER_0_177_655
*4806 FILLER_0_178_1201
*4807 FILLER_0_178_1213
*4808 FILLER_0_178_1225
*4809 FILLER_0_178_1227
*4810 FILLER_0_178_1239
*4811 FILLER_0_178_1251
*4812 FILLER_0_178_1263
*4813 FILLER_0_178_1275
*4814 FILLER_0_178_1281
*4815 FILLER_0_178_1283
*4816 FILLER_0_178_1295
*4817 FILLER_0_178_13
*4818 FILLER_0_178_1307
*4819 FILLER_0_178_1319
*4820 FILLER_0_178_1331
*4821 FILLER_0_178_1337
*4822 FILLER_0_178_1339
*4823 FILLER_0_178_25
*4824 FILLER_0_178_29
*4825 FILLER_0_178_41
*4826 FILLER_0_178_49
*4827 FILLER_0_178_593
*4828 FILLER_0_178_605
*4829 FILLER_0_178_617
*4830 FILLER_0_178_619
*4831 FILLER_0_178_631
*4832 FILLER_0_178_643
*4833 FILLER_0_178_655
*4834 FILLER_0_178_9
*4835 FILLER_0_179_1201
*4836 FILLER_0_179_1213
*4837 FILLER_0_179_1225
*4838 FILLER_0_179_1237
*4839 FILLER_0_179_1249
*4840 FILLER_0_179_1253
*4841 FILLER_0_179_1255
*4842 FILLER_0_179_1267
*4843 FILLER_0_179_1279
*4844 FILLER_0_179_1291
*4845 FILLER_0_179_1303
*4846 FILLER_0_179_1309
*4847 FILLER_0_179_1311
*4848 FILLER_0_179_1323
*4849 FILLER_0_179_1331
*4850 FILLER_0_179_15
*4851 FILLER_0_179_27
*4852 FILLER_0_179_3
*4853 FILLER_0_179_39
*4854 FILLER_0_179_47
*4855 FILLER_0_179_593
*4856 FILLER_0_179_605
*4857 FILLER_0_179_617
*4858 FILLER_0_179_629
*4859 FILLER_0_179_641
*4860 FILLER_0_179_645
*4861 FILLER_0_179_647
*4862 FILLER_0_179_655
*4863 FILLER_0_17_1201
*4864 FILLER_0_17_1213
*4865 FILLER_0_17_1225
*4866 FILLER_0_17_1237
*4867 FILLER_0_17_1249
*4868 FILLER_0_17_1253
*4869 FILLER_0_17_1255
*4870 FILLER_0_17_1267
*4871 FILLER_0_17_1279
*4872 FILLER_0_17_1291
*4873 FILLER_0_17_13
*4874 FILLER_0_17_1303
*4875 FILLER_0_17_1309
*4876 FILLER_0_17_1311
*4877 FILLER_0_17_1323
*4878 FILLER_0_17_25
*4879 FILLER_0_17_37
*4880 FILLER_0_17_49
*4881 FILLER_0_17_593
*4882 FILLER_0_17_605
*4883 FILLER_0_17_617
*4884 FILLER_0_17_629
*4885 FILLER_0_17_641
*4886 FILLER_0_17_645
*4887 FILLER_0_17_647
*4888 FILLER_0_17_9
*4889 FILLER_0_180_1201
*4890 FILLER_0_180_1213
*4891 FILLER_0_180_1225
*4892 FILLER_0_180_1227
*4893 FILLER_0_180_1239
*4894 FILLER_0_180_1251
*4895 FILLER_0_180_1263
*4896 FILLER_0_180_1275
*4897 FILLER_0_180_1281
*4898 FILLER_0_180_1283
*4899 FILLER_0_180_1295
*4900 FILLER_0_180_1307
*4901 FILLER_0_180_1319
*4902 FILLER_0_180_1331
*4903 FILLER_0_180_1337
*4904 FILLER_0_180_1339
*4905 FILLER_0_180_1343
*4906 FILLER_0_180_15
*4907 FILLER_0_180_27
*4908 FILLER_0_180_29
*4909 FILLER_0_180_3
*4910 FILLER_0_180_41
*4911 FILLER_0_180_49
*4912 FILLER_0_180_593
*4913 FILLER_0_180_605
*4914 FILLER_0_180_617
*4915 FILLER_0_180_619
*4916 FILLER_0_180_631
*4917 FILLER_0_180_643
*4918 FILLER_0_180_655
*4919 FILLER_0_181_1201
*4920 FILLER_0_181_1213
*4921 FILLER_0_181_1225
*4922 FILLER_0_181_1237
*4923 FILLER_0_181_1249
*4924 FILLER_0_181_1253
*4925 FILLER_0_181_1255
*4926 FILLER_0_181_1267
*4927 FILLER_0_181_1279
*4928 FILLER_0_181_1291
*4929 FILLER_0_181_1303
*4930 FILLER_0_181_1309
*4931 FILLER_0_181_1311
*4932 FILLER_0_181_1323
*4933 FILLER_0_181_1335
*4934 FILLER_0_181_1343
*4935 FILLER_0_181_15
*4936 FILLER_0_181_27
*4937 FILLER_0_181_3
*4938 FILLER_0_181_39
*4939 FILLER_0_181_47
*4940 FILLER_0_181_593
*4941 FILLER_0_181_605
*4942 FILLER_0_181_617
*4943 FILLER_0_181_629
*4944 FILLER_0_181_641
*4945 FILLER_0_181_645
*4946 FILLER_0_181_647
*4947 FILLER_0_181_655
*4948 FILLER_0_182_1201
*4949 FILLER_0_182_1213
*4950 FILLER_0_182_1225
*4951 FILLER_0_182_1227
*4952 FILLER_0_182_1239
*4953 FILLER_0_182_1251
*4954 FILLER_0_182_1263
*4955 FILLER_0_182_1275
*4956 FILLER_0_182_1281
*4957 FILLER_0_182_1283
*4958 FILLER_0_182_1295
*4959 FILLER_0_182_13
*4960 FILLER_0_182_1307
*4961 FILLER_0_182_1319
*4962 FILLER_0_182_1331
*4963 FILLER_0_182_1337
*4964 FILLER_0_182_1339
*4965 FILLER_0_182_1343
*4966 FILLER_0_182_25
*4967 FILLER_0_182_29
*4968 FILLER_0_182_41
*4969 FILLER_0_182_49
*4970 FILLER_0_182_593
*4971 FILLER_0_182_605
*4972 FILLER_0_182_617
*4973 FILLER_0_182_619
*4974 FILLER_0_182_631
*4975 FILLER_0_182_643
*4976 FILLER_0_182_655
*4977 FILLER_0_182_9
*4978 FILLER_0_183_1201
*4979 FILLER_0_183_1213
*4980 FILLER_0_183_1225
*4981 FILLER_0_183_1237
*4982 FILLER_0_183_1249
*4983 FILLER_0_183_1253
*4984 FILLER_0_183_1255
*4985 FILLER_0_183_1267
*4986 FILLER_0_183_1279
*4987 FILLER_0_183_1291
*4988 FILLER_0_183_1303
*4989 FILLER_0_183_1309
*4990 FILLER_0_183_1311
*4991 FILLER_0_183_1323
*4992 FILLER_0_183_1335
*4993 FILLER_0_183_1343
*4994 FILLER_0_183_15
*4995 FILLER_0_183_27
*4996 FILLER_0_183_3
*4997 FILLER_0_183_39
*4998 FILLER_0_183_47
*4999 FILLER_0_183_593
*5000 FILLER_0_183_605
*5001 FILLER_0_183_617
*5002 FILLER_0_183_629
*5003 FILLER_0_183_641
*5004 FILLER_0_183_645
*5005 FILLER_0_183_647
*5006 FILLER_0_183_655
*5007 FILLER_0_184_1201
*5008 FILLER_0_184_1213
*5009 FILLER_0_184_1225
*5010 FILLER_0_184_1227
*5011 FILLER_0_184_1239
*5012 FILLER_0_184_1251
*5013 FILLER_0_184_1263
*5014 FILLER_0_184_1275
*5015 FILLER_0_184_1281
*5016 FILLER_0_184_1283
*5017 FILLER_0_184_1295
*5018 FILLER_0_184_1307
*5019 FILLER_0_184_1319
*5020 FILLER_0_184_1331
*5021 FILLER_0_184_1337
*5022 FILLER_0_184_1339
*5023 FILLER_0_184_15
*5024 FILLER_0_184_27
*5025 FILLER_0_184_29
*5026 FILLER_0_184_3
*5027 FILLER_0_184_41
*5028 FILLER_0_184_49
*5029 FILLER_0_184_593
*5030 FILLER_0_184_605
*5031 FILLER_0_184_617
*5032 FILLER_0_184_619
*5033 FILLER_0_184_631
*5034 FILLER_0_184_643
*5035 FILLER_0_184_655
*5036 FILLER_0_185_1201
*5037 FILLER_0_185_1213
*5038 FILLER_0_185_1225
*5039 FILLER_0_185_1237
*5040 FILLER_0_185_1249
*5041 FILLER_0_185_1253
*5042 FILLER_0_185_1255
*5043 FILLER_0_185_1267
*5044 FILLER_0_185_1279
*5045 FILLER_0_185_1291
*5046 FILLER_0_185_13
*5047 FILLER_0_185_1303
*5048 FILLER_0_185_1309
*5049 FILLER_0_185_1311
*5050 FILLER_0_185_1323
*5051 FILLER_0_185_1331
*5052 FILLER_0_185_25
*5053 FILLER_0_185_37
*5054 FILLER_0_185_45
*5055 FILLER_0_185_593
*5056 FILLER_0_185_605
*5057 FILLER_0_185_617
*5058 FILLER_0_185_629
*5059 FILLER_0_185_641
*5060 FILLER_0_185_645
*5061 FILLER_0_185_647
*5062 FILLER_0_185_655
*5063 FILLER_0_185_9
*5064 FILLER_0_186_1201
*5065 FILLER_0_186_1213
*5066 FILLER_0_186_1225
*5067 FILLER_0_186_1227
*5068 FILLER_0_186_1239
*5069 FILLER_0_186_1251
*5070 FILLER_0_186_1263
*5071 FILLER_0_186_1275
*5072 FILLER_0_186_1281
*5073 FILLER_0_186_1283
*5074 FILLER_0_186_1295
*5075 FILLER_0_186_1307
*5076 FILLER_0_186_1319
*5077 FILLER_0_186_1331
*5078 FILLER_0_186_1337
*5079 FILLER_0_186_1339
*5080 FILLER_0_186_1343
*5081 FILLER_0_186_15
*5082 FILLER_0_186_27
*5083 FILLER_0_186_29
*5084 FILLER_0_186_3
*5085 FILLER_0_186_41
*5086 FILLER_0_186_49
*5087 FILLER_0_186_593
*5088 FILLER_0_186_605
*5089 FILLER_0_186_617
*5090 FILLER_0_186_619
*5091 FILLER_0_186_631
*5092 FILLER_0_186_643
*5093 FILLER_0_186_655
*5094 FILLER_0_187_1201
*5095 FILLER_0_187_1213
*5096 FILLER_0_187_1225
*5097 FILLER_0_187_1237
*5098 FILLER_0_187_1249
*5099 FILLER_0_187_1253
*5100 FILLER_0_187_1255
*5101 FILLER_0_187_1267
*5102 FILLER_0_187_1279
*5103 FILLER_0_187_1291
*5104 FILLER_0_187_1303
*5105 FILLER_0_187_1309
*5106 FILLER_0_187_1311
*5107 FILLER_0_187_1323
*5108 FILLER_0_187_1335
*5109 FILLER_0_187_1343
*5110 FILLER_0_187_15
*5111 FILLER_0_187_27
*5112 FILLER_0_187_3
*5113 FILLER_0_187_39
*5114 FILLER_0_187_47
*5115 FILLER_0_187_593
*5116 FILLER_0_187_605
*5117 FILLER_0_187_617
*5118 FILLER_0_187_629
*5119 FILLER_0_187_641
*5120 FILLER_0_187_645
*5121 FILLER_0_187_647
*5122 FILLER_0_188_1201
*5123 FILLER_0_188_1213
*5124 FILLER_0_188_1225
*5125 FILLER_0_188_1227
*5126 FILLER_0_188_1239
*5127 FILLER_0_188_1251
*5128 FILLER_0_188_1263
*5129 FILLER_0_188_1275
*5130 FILLER_0_188_1281
*5131 FILLER_0_188_1283
*5132 FILLER_0_188_1295
*5133 FILLER_0_188_1307
*5134 FILLER_0_188_1319
*5135 FILLER_0_188_1331
*5136 FILLER_0_188_1337
*5137 FILLER_0_188_1339
*5138 FILLER_0_188_1343
*5139 FILLER_0_188_15
*5140 FILLER_0_188_27
*5141 FILLER_0_188_29
*5142 FILLER_0_188_3
*5143 FILLER_0_188_41
*5144 FILLER_0_188_49
*5145 FILLER_0_188_593
*5146 FILLER_0_188_605
*5147 FILLER_0_188_617
*5148 FILLER_0_188_619
*5149 FILLER_0_188_631
*5150 FILLER_0_188_643
*5151 FILLER_0_188_655
*5152 FILLER_0_189_1201
*5153 FILLER_0_189_1213
*5154 FILLER_0_189_1225
*5155 FILLER_0_189_1237
*5156 FILLER_0_189_1249
*5157 FILLER_0_189_1253
*5158 FILLER_0_189_1255
*5159 FILLER_0_189_1267
*5160 FILLER_0_189_1279
*5161 FILLER_0_189_1291
*5162 FILLER_0_189_13
*5163 FILLER_0_189_1303
*5164 FILLER_0_189_1309
*5165 FILLER_0_189_1311
*5166 FILLER_0_189_1323
*5167 FILLER_0_189_1335
*5168 FILLER_0_189_1343
*5169 FILLER_0_189_25
*5170 FILLER_0_189_37
*5171 FILLER_0_189_45
*5172 FILLER_0_189_593
*5173 FILLER_0_189_605
*5174 FILLER_0_189_617
*5175 FILLER_0_189_629
*5176 FILLER_0_189_641
*5177 FILLER_0_189_645
*5178 FILLER_0_189_647
*5179 FILLER_0_189_9
*5180 FILLER_0_18_1201
*5181 FILLER_0_18_1213
*5182 FILLER_0_18_1225
*5183 FILLER_0_18_1227
*5184 FILLER_0_18_1239
*5185 FILLER_0_18_1251
*5186 FILLER_0_18_1263
*5187 FILLER_0_18_1275
*5188 FILLER_0_18_1281
*5189 FILLER_0_18_1283
*5190 FILLER_0_18_1295
*5191 FILLER_0_18_1307
*5192 FILLER_0_18_1319
*5193 FILLER_0_18_1331
*5194 FILLER_0_18_1337
*5195 FILLER_0_18_1339
*5196 FILLER_0_18_1343
*5197 FILLER_0_18_15
*5198 FILLER_0_18_27
*5199 FILLER_0_18_29
*5200 FILLER_0_18_3
*5201 FILLER_0_18_41
*5202 FILLER_0_18_49
*5203 FILLER_0_18_593
*5204 FILLER_0_18_605
*5205 FILLER_0_18_617
*5206 FILLER_0_18_619
*5207 FILLER_0_18_631
*5208 FILLER_0_18_643
*5209 FILLER_0_18_655
*5210 FILLER_0_190_1201
*5211 FILLER_0_190_1213
*5212 FILLER_0_190_1225
*5213 FILLER_0_190_1227
*5214 FILLER_0_190_1239
*5215 FILLER_0_190_1251
*5216 FILLER_0_190_1263
*5217 FILLER_0_190_1275
*5218 FILLER_0_190_1281
*5219 FILLER_0_190_1283
*5220 FILLER_0_190_1295
*5221 FILLER_0_190_1307
*5222 FILLER_0_190_1319
*5223 FILLER_0_190_1331
*5224 FILLER_0_190_1337
*5225 FILLER_0_190_1339
*5226 FILLER_0_190_15
*5227 FILLER_0_190_27
*5228 FILLER_0_190_29
*5229 FILLER_0_190_3
*5230 FILLER_0_190_41
*5231 FILLER_0_190_49
*5232 FILLER_0_190_593
*5233 FILLER_0_190_605
*5234 FILLER_0_190_617
*5235 FILLER_0_190_619
*5236 FILLER_0_190_631
*5237 FILLER_0_190_643
*5238 FILLER_0_190_655
*5239 FILLER_0_191_1201
*5240 FILLER_0_191_1213
*5241 FILLER_0_191_1225
*5242 FILLER_0_191_1237
*5243 FILLER_0_191_1249
*5244 FILLER_0_191_1253
*5245 FILLER_0_191_1255
*5246 FILLER_0_191_1267
*5247 FILLER_0_191_1279
*5248 FILLER_0_191_1291
*5249 FILLER_0_191_1303
*5250 FILLER_0_191_1309
*5251 FILLER_0_191_1311
*5252 FILLER_0_191_1323
*5253 FILLER_0_191_1331
*5254 FILLER_0_191_15
*5255 FILLER_0_191_27
*5256 FILLER_0_191_3
*5257 FILLER_0_191_39
*5258 FILLER_0_191_47
*5259 FILLER_0_191_593
*5260 FILLER_0_191_605
*5261 FILLER_0_191_617
*5262 FILLER_0_191_629
*5263 FILLER_0_191_641
*5264 FILLER_0_191_645
*5265 FILLER_0_191_647
*5266 FILLER_0_192_1201
*5267 FILLER_0_192_1213
*5268 FILLER_0_192_1225
*5269 FILLER_0_192_1227
*5270 FILLER_0_192_1239
*5271 FILLER_0_192_1251
*5272 FILLER_0_192_1263
*5273 FILLER_0_192_1275
*5274 FILLER_0_192_1281
*5275 FILLER_0_192_1283
*5276 FILLER_0_192_1295
*5277 FILLER_0_192_13
*5278 FILLER_0_192_1307
*5279 FILLER_0_192_1319
*5280 FILLER_0_192_1331
*5281 FILLER_0_192_1337
*5282 FILLER_0_192_1339
*5283 FILLER_0_192_1343
*5284 FILLER_0_192_25
*5285 FILLER_0_192_29
*5286 FILLER_0_192_41
*5287 FILLER_0_192_49
*5288 FILLER_0_192_593
*5289 FILLER_0_192_605
*5290 FILLER_0_192_617
*5291 FILLER_0_192_619
*5292 FILLER_0_192_631
*5293 FILLER_0_192_643
*5294 FILLER_0_192_655
*5295 FILLER_0_192_9
*5296 FILLER_0_193_1201
*5297 FILLER_0_193_1213
*5298 FILLER_0_193_1225
*5299 FILLER_0_193_1237
*5300 FILLER_0_193_1249
*5301 FILLER_0_193_1253
*5302 FILLER_0_193_1255
*5303 FILLER_0_193_1267
*5304 FILLER_0_193_1279
*5305 FILLER_0_193_1291
*5306 FILLER_0_193_1303
*5307 FILLER_0_193_1309
*5308 FILLER_0_193_1311
*5309 FILLER_0_193_1323
*5310 FILLER_0_193_1335
*5311 FILLER_0_193_1343
*5312 FILLER_0_193_15
*5313 FILLER_0_193_27
*5314 FILLER_0_193_3
*5315 FILLER_0_193_39
*5316 FILLER_0_193_47
*5317 FILLER_0_193_593
*5318 FILLER_0_193_605
*5319 FILLER_0_193_617
*5320 FILLER_0_193_629
*5321 FILLER_0_193_641
*5322 FILLER_0_193_645
*5323 FILLER_0_193_647
*5324 FILLER_0_194_1201
*5325 FILLER_0_194_1213
*5326 FILLER_0_194_1225
*5327 FILLER_0_194_1227
*5328 FILLER_0_194_1239
*5329 FILLER_0_194_1251
*5330 FILLER_0_194_1263
*5331 FILLER_0_194_1275
*5332 FILLER_0_194_1281
*5333 FILLER_0_194_1283
*5334 FILLER_0_194_1295
*5335 FILLER_0_194_1307
*5336 FILLER_0_194_1319
*5337 FILLER_0_194_1331
*5338 FILLER_0_194_1337
*5339 FILLER_0_194_1339
*5340 FILLER_0_194_1343
*5341 FILLER_0_194_15
*5342 FILLER_0_194_27
*5343 FILLER_0_194_29
*5344 FILLER_0_194_3
*5345 FILLER_0_194_41
*5346 FILLER_0_194_49
*5347 FILLER_0_194_593
*5348 FILLER_0_194_605
*5349 FILLER_0_194_617
*5350 FILLER_0_194_619
*5351 FILLER_0_194_631
*5352 FILLER_0_194_643
*5353 FILLER_0_194_655
*5354 FILLER_0_195_1201
*5355 FILLER_0_195_1213
*5356 FILLER_0_195_1225
*5357 FILLER_0_195_1237
*5358 FILLER_0_195_1249
*5359 FILLER_0_195_1253
*5360 FILLER_0_195_1255
*5361 FILLER_0_195_1267
*5362 FILLER_0_195_1279
*5363 FILLER_0_195_1291
*5364 FILLER_0_195_1303
*5365 FILLER_0_195_1309
*5366 FILLER_0_195_1311
*5367 FILLER_0_195_1323
*5368 FILLER_0_195_1335
*5369 FILLER_0_195_1343
*5370 FILLER_0_195_15
*5371 FILLER_0_195_27
*5372 FILLER_0_195_3
*5373 FILLER_0_195_39
*5374 FILLER_0_195_47
*5375 FILLER_0_195_593
*5376 FILLER_0_195_605
*5377 FILLER_0_195_617
*5378 FILLER_0_195_629
*5379 FILLER_0_195_641
*5380 FILLER_0_195_645
*5381 FILLER_0_195_647
*5382 FILLER_0_196_1201
*5383 FILLER_0_196_1213
*5384 FILLER_0_196_1225
*5385 FILLER_0_196_1227
*5386 FILLER_0_196_1239
*5387 FILLER_0_196_1251
*5388 FILLER_0_196_1263
*5389 FILLER_0_196_1275
*5390 FILLER_0_196_1281
*5391 FILLER_0_196_1283
*5392 FILLER_0_196_1295
*5393 FILLER_0_196_13
*5394 FILLER_0_196_1307
*5395 FILLER_0_196_1319
*5396 FILLER_0_196_1331
*5397 FILLER_0_196_1337
*5398 FILLER_0_196_1339
*5399 FILLER_0_196_25
*5400 FILLER_0_196_29
*5401 FILLER_0_196_41
*5402 FILLER_0_196_49
*5403 FILLER_0_196_593
*5404 FILLER_0_196_605
*5405 FILLER_0_196_617
*5406 FILLER_0_196_619
*5407 FILLER_0_196_631
*5408 FILLER_0_196_643
*5409 FILLER_0_196_655
*5410 FILLER_0_196_9
*5411 FILLER_0_197_1201
*5412 FILLER_0_197_1213
*5413 FILLER_0_197_1225
*5414 FILLER_0_197_1237
*5415 FILLER_0_197_1249
*5416 FILLER_0_197_1253
*5417 FILLER_0_197_1255
*5418 FILLER_0_197_1267
*5419 FILLER_0_197_1279
*5420 FILLER_0_197_1291
*5421 FILLER_0_197_1303
*5422 FILLER_0_197_1309
*5423 FILLER_0_197_1311
*5424 FILLER_0_197_1323
*5425 FILLER_0_197_1331
*5426 FILLER_0_197_15
*5427 FILLER_0_197_27
*5428 FILLER_0_197_3
*5429 FILLER_0_197_39
*5430 FILLER_0_197_47
*5431 FILLER_0_197_593
*5432 FILLER_0_197_605
*5433 FILLER_0_197_617
*5434 FILLER_0_197_629
*5435 FILLER_0_197_641
*5436 FILLER_0_197_645
*5437 FILLER_0_197_647
*5438 FILLER_0_198_1201
*5439 FILLER_0_198_1213
*5440 FILLER_0_198_1225
*5441 FILLER_0_198_1227
*5442 FILLER_0_198_1239
*5443 FILLER_0_198_1251
*5444 FILLER_0_198_1263
*5445 FILLER_0_198_1275
*5446 FILLER_0_198_1281
*5447 FILLER_0_198_1283
*5448 FILLER_0_198_1295
*5449 FILLER_0_198_1307
*5450 FILLER_0_198_1319
*5451 FILLER_0_198_1331
*5452 FILLER_0_198_1337
*5453 FILLER_0_198_1339
*5454 FILLER_0_198_1343
*5455 FILLER_0_198_15
*5456 FILLER_0_198_27
*5457 FILLER_0_198_29
*5458 FILLER_0_198_3
*5459 FILLER_0_198_41
*5460 FILLER_0_198_49
*5461 FILLER_0_198_593
*5462 FILLER_0_198_605
*5463 FILLER_0_198_617
*5464 FILLER_0_198_619
*5465 FILLER_0_198_631
*5466 FILLER_0_198_643
*5467 FILLER_0_198_655
*5468 FILLER_0_199_1201
*5469 FILLER_0_199_1213
*5470 FILLER_0_199_1225
*5471 FILLER_0_199_1237
*5472 FILLER_0_199_1249
*5473 FILLER_0_199_1253
*5474 FILLER_0_199_1255
*5475 FILLER_0_199_1267
*5476 FILLER_0_199_1279
*5477 FILLER_0_199_1291
*5478 FILLER_0_199_13
*5479 FILLER_0_199_1303
*5480 FILLER_0_199_1309
*5481 FILLER_0_199_1311
*5482 FILLER_0_199_1323
*5483 FILLER_0_199_1335
*5484 FILLER_0_199_1343
*5485 FILLER_0_199_25
*5486 FILLER_0_199_37
*5487 FILLER_0_199_49
*5488 FILLER_0_199_593
*5489 FILLER_0_199_605
*5490 FILLER_0_199_617
*5491 FILLER_0_199_629
*5492 FILLER_0_199_641
*5493 FILLER_0_199_645
*5494 FILLER_0_199_647
*5495 FILLER_0_199_9
*5496 FILLER_0_19_1201
*5497 FILLER_0_19_1213
*5498 FILLER_0_19_1225
*5499 FILLER_0_19_1237
*5500 FILLER_0_19_1249
*5501 FILLER_0_19_1253
*5502 FILLER_0_19_1255
*5503 FILLER_0_19_1267
*5504 FILLER_0_19_1279
*5505 FILLER_0_19_1291
*5506 FILLER_0_19_1303
*5507 FILLER_0_19_1309
*5508 FILLER_0_19_1311
*5509 FILLER_0_19_1323
*5510 FILLER_0_19_1335
*5511 FILLER_0_19_1343
*5512 FILLER_0_19_15
*5513 FILLER_0_19_27
*5514 FILLER_0_19_3
*5515 FILLER_0_19_39
*5516 FILLER_0_19_47
*5517 FILLER_0_19_593
*5518 FILLER_0_19_605
*5519 FILLER_0_19_617
*5520 FILLER_0_19_629
*5521 FILLER_0_19_641
*5522 FILLER_0_19_645
*5523 FILLER_0_19_647
*5524 FILLER_0_1_1001
*5525 FILLER_0_1_1007
*5526 FILLER_0_1_1009
*5527 FILLER_0_1_1021
*5528 FILLER_0_1_1033
*5529 FILLER_0_1_1045
*5530 FILLER_0_1_105
*5531 FILLER_0_1_1057
*5532 FILLER_0_1_1063
*5533 FILLER_0_1_1065
*5534 FILLER_0_1_1077
*5535 FILLER_0_1_1089
*5536 FILLER_0_1_1101
*5537 FILLER_0_1_111
*5538 FILLER_0_1_1113
*5539 FILLER_0_1_1119
*5540 FILLER_0_1_1121
*5541 FILLER_0_1_113
*5542 FILLER_0_1_1133
*5543 FILLER_0_1_1145
*5544 FILLER_0_1_1157
*5545 FILLER_0_1_1169
*5546 FILLER_0_1_1175
*5547 FILLER_0_1_1177
*5548 FILLER_0_1_1189
*5549 FILLER_0_1_1201
*5550 FILLER_0_1_1213
*5551 FILLER_0_1_1225
*5552 FILLER_0_1_1231
*5553 FILLER_0_1_1233
*5554 FILLER_0_1_1245
*5555 FILLER_0_1_125
*5556 FILLER_0_1_1257
*5557 FILLER_0_1_1269
*5558 FILLER_0_1_1281
*5559 FILLER_0_1_1287
*5560 FILLER_0_1_1289
*5561 FILLER_0_1_13
*5562 FILLER_0_1_1301
*5563 FILLER_0_1_1313
*5564 FILLER_0_1_1325
*5565 FILLER_0_1_1329
*5566 FILLER_0_1_1332
*5567 FILLER_0_1_1338
*5568 FILLER_0_1_137
*5569 FILLER_0_1_149
*5570 FILLER_0_1_161
*5571 FILLER_0_1_167
*5572 FILLER_0_1_169
*5573 FILLER_0_1_181
*5574 FILLER_0_1_193
*5575 FILLER_0_1_205
*5576 FILLER_0_1_217
*5577 FILLER_0_1_223
*5578 FILLER_0_1_225
*5579 FILLER_0_1_237
*5580 FILLER_0_1_249
*5581 FILLER_0_1_25
*5582 FILLER_0_1_261
*5583 FILLER_0_1_273
*5584 FILLER_0_1_279
*5585 FILLER_0_1_281
*5586 FILLER_0_1_293
*5587 FILLER_0_1_305
*5588 FILLER_0_1_317
*5589 FILLER_0_1_329
*5590 FILLER_0_1_335
*5591 FILLER_0_1_337
*5592 FILLER_0_1_349
*5593 FILLER_0_1_361
*5594 FILLER_0_1_37
*5595 FILLER_0_1_373
*5596 FILLER_0_1_385
*5597 FILLER_0_1_391
*5598 FILLER_0_1_393
*5599 FILLER_0_1_405
*5600 FILLER_0_1_417
*5601 FILLER_0_1_429
*5602 FILLER_0_1_441
*5603 FILLER_0_1_447
*5604 FILLER_0_1_449
*5605 FILLER_0_1_461
*5606 FILLER_0_1_473
*5607 FILLER_0_1_485
*5608 FILLER_0_1_49
*5609 FILLER_0_1_497
*5610 FILLER_0_1_503
*5611 FILLER_0_1_505
*5612 FILLER_0_1_517
*5613 FILLER_0_1_529
*5614 FILLER_0_1_541
*5615 FILLER_0_1_55
*5616 FILLER_0_1_553
*5617 FILLER_0_1_559
*5618 FILLER_0_1_561
*5619 FILLER_0_1_57
*5620 FILLER_0_1_573
*5621 FILLER_0_1_585
*5622 FILLER_0_1_597
*5623 FILLER_0_1_609
*5624 FILLER_0_1_615
*5625 FILLER_0_1_617
*5626 FILLER_0_1_629
*5627 FILLER_0_1_641
*5628 FILLER_0_1_653
*5629 FILLER_0_1_665
*5630 FILLER_0_1_671
*5631 FILLER_0_1_673
*5632 FILLER_0_1_685
*5633 FILLER_0_1_69
*5634 FILLER_0_1_697
*5635 FILLER_0_1_709
*5636 FILLER_0_1_721
*5637 FILLER_0_1_727
*5638 FILLER_0_1_729
*5639 FILLER_0_1_741
*5640 FILLER_0_1_753
*5641 FILLER_0_1_765
*5642 FILLER_0_1_777
*5643 FILLER_0_1_783
*5644 FILLER_0_1_785
*5645 FILLER_0_1_797
*5646 FILLER_0_1_809
*5647 FILLER_0_1_81
*5648 FILLER_0_1_821
*5649 FILLER_0_1_833
*5650 FILLER_0_1_839
*5651 FILLER_0_1_841
*5652 FILLER_0_1_853
*5653 FILLER_0_1_865
*5654 FILLER_0_1_877
*5655 FILLER_0_1_889
*5656 FILLER_0_1_895
*5657 FILLER_0_1_897
*5658 FILLER_0_1_9
*5659 FILLER_0_1_909
*5660 FILLER_0_1_921
*5661 FILLER_0_1_93
*5662 FILLER_0_1_933
*5663 FILLER_0_1_945
*5664 FILLER_0_1_951
*5665 FILLER_0_1_953
*5666 FILLER_0_1_965
*5667 FILLER_0_1_977
*5668 FILLER_0_1_989
*5669 FILLER_0_200_1201
*5670 FILLER_0_200_1213
*5671 FILLER_0_200_1225
*5672 FILLER_0_200_1227
*5673 FILLER_0_200_1239
*5674 FILLER_0_200_1251
*5675 FILLER_0_200_1263
*5676 FILLER_0_200_1275
*5677 FILLER_0_200_1281
*5678 FILLER_0_200_1283
*5679 FILLER_0_200_1295
*5680 FILLER_0_200_1307
*5681 FILLER_0_200_1319
*5682 FILLER_0_200_1331
*5683 FILLER_0_200_1337
*5684 FILLER_0_200_1339
*5685 FILLER_0_200_1343
*5686 FILLER_0_200_15
*5687 FILLER_0_200_27
*5688 FILLER_0_200_29
*5689 FILLER_0_200_3
*5690 FILLER_0_200_41
*5691 FILLER_0_200_49
*5692 FILLER_0_200_593
*5693 FILLER_0_200_605
*5694 FILLER_0_200_617
*5695 FILLER_0_200_619
*5696 FILLER_0_200_631
*5697 FILLER_0_200_643
*5698 FILLER_0_200_655
*5699 FILLER_0_201_1201
*5700 FILLER_0_201_1213
*5701 FILLER_0_201_1225
*5702 FILLER_0_201_1237
*5703 FILLER_0_201_1249
*5704 FILLER_0_201_1253
*5705 FILLER_0_201_1255
*5706 FILLER_0_201_1267
*5707 FILLER_0_201_1279
*5708 FILLER_0_201_1291
*5709 FILLER_0_201_1303
*5710 FILLER_0_201_1309
*5711 FILLER_0_201_1311
*5712 FILLER_0_201_1323
*5713 FILLER_0_201_1335
*5714 FILLER_0_201_1343
*5715 FILLER_0_201_15
*5716 FILLER_0_201_27
*5717 FILLER_0_201_3
*5718 FILLER_0_201_39
*5719 FILLER_0_201_47
*5720 FILLER_0_201_593
*5721 FILLER_0_201_605
*5722 FILLER_0_201_617
*5723 FILLER_0_201_629
*5724 FILLER_0_201_641
*5725 FILLER_0_201_645
*5726 FILLER_0_201_647
*5727 FILLER_0_202_1201
*5728 FILLER_0_202_1213
*5729 FILLER_0_202_1225
*5730 FILLER_0_202_1227
*5731 FILLER_0_202_1239
*5732 FILLER_0_202_1251
*5733 FILLER_0_202_1263
*5734 FILLER_0_202_1275
*5735 FILLER_0_202_1281
*5736 FILLER_0_202_1283
*5737 FILLER_0_202_1295
*5738 FILLER_0_202_1307
*5739 FILLER_0_202_1319
*5740 FILLER_0_202_1331
*5741 FILLER_0_202_1337
*5742 FILLER_0_202_1339
*5743 FILLER_0_202_15
*5744 FILLER_0_202_27
*5745 FILLER_0_202_29
*5746 FILLER_0_202_3
*5747 FILLER_0_202_41
*5748 FILLER_0_202_49
*5749 FILLER_0_202_593
*5750 FILLER_0_202_605
*5751 FILLER_0_202_617
*5752 FILLER_0_202_619
*5753 FILLER_0_202_631
*5754 FILLER_0_202_643
*5755 FILLER_0_202_655
*5756 FILLER_0_203_1201
*5757 FILLER_0_203_1213
*5758 FILLER_0_203_1225
*5759 FILLER_0_203_1237
*5760 FILLER_0_203_1249
*5761 FILLER_0_203_1253
*5762 FILLER_0_203_1255
*5763 FILLER_0_203_1267
*5764 FILLER_0_203_1279
*5765 FILLER_0_203_1291
*5766 FILLER_0_203_13
*5767 FILLER_0_203_1303
*5768 FILLER_0_203_1309
*5769 FILLER_0_203_1311
*5770 FILLER_0_203_1323
*5771 FILLER_0_203_1331
*5772 FILLER_0_203_25
*5773 FILLER_0_203_37
*5774 FILLER_0_203_49
*5775 FILLER_0_203_593
*5776 FILLER_0_203_605
*5777 FILLER_0_203_617
*5778 FILLER_0_203_629
*5779 FILLER_0_203_641
*5780 FILLER_0_203_645
*5781 FILLER_0_203_647
*5782 FILLER_0_203_9
*5783 FILLER_0_204_1201
*5784 FILLER_0_204_1213
*5785 FILLER_0_204_1225
*5786 FILLER_0_204_1227
*5787 FILLER_0_204_1239
*5788 FILLER_0_204_1251
*5789 FILLER_0_204_1263
*5790 FILLER_0_204_1275
*5791 FILLER_0_204_1281
*5792 FILLER_0_204_1283
*5793 FILLER_0_204_1295
*5794 FILLER_0_204_1307
*5795 FILLER_0_204_1319
*5796 FILLER_0_204_1331
*5797 FILLER_0_204_1337
*5798 FILLER_0_204_1339
*5799 FILLER_0_204_1343
*5800 FILLER_0_204_15
*5801 FILLER_0_204_27
*5802 FILLER_0_204_29
*5803 FILLER_0_204_3
*5804 FILLER_0_204_41
*5805 FILLER_0_204_49
*5806 FILLER_0_204_593
*5807 FILLER_0_204_605
*5808 FILLER_0_204_617
*5809 FILLER_0_204_619
*5810 FILLER_0_204_631
*5811 FILLER_0_204_643
*5812 FILLER_0_204_655
*5813 FILLER_0_205_1201
*5814 FILLER_0_205_1213
*5815 FILLER_0_205_1225
*5816 FILLER_0_205_1237
*5817 FILLER_0_205_1249
*5818 FILLER_0_205_1253
*5819 FILLER_0_205_1255
*5820 FILLER_0_205_1267
*5821 FILLER_0_205_1279
*5822 FILLER_0_205_1291
*5823 FILLER_0_205_1303
*5824 FILLER_0_205_1309
*5825 FILLER_0_205_1311
*5826 FILLER_0_205_1323
*5827 FILLER_0_205_1335
*5828 FILLER_0_205_1343
*5829 FILLER_0_205_15
*5830 FILLER_0_205_27
*5831 FILLER_0_205_3
*5832 FILLER_0_205_39
*5833 FILLER_0_205_47
*5834 FILLER_0_205_593
*5835 FILLER_0_205_605
*5836 FILLER_0_205_617
*5837 FILLER_0_205_629
*5838 FILLER_0_205_641
*5839 FILLER_0_205_645
*5840 FILLER_0_205_647
*5841 FILLER_0_206_1201
*5842 FILLER_0_206_1213
*5843 FILLER_0_206_1225
*5844 FILLER_0_206_1227
*5845 FILLER_0_206_1239
*5846 FILLER_0_206_1251
*5847 FILLER_0_206_1263
*5848 FILLER_0_206_1275
*5849 FILLER_0_206_1281
*5850 FILLER_0_206_1283
*5851 FILLER_0_206_1295
*5852 FILLER_0_206_13
*5853 FILLER_0_206_1307
*5854 FILLER_0_206_1319
*5855 FILLER_0_206_1331
*5856 FILLER_0_206_1337
*5857 FILLER_0_206_1339
*5858 FILLER_0_206_1343
*5859 FILLER_0_206_25
*5860 FILLER_0_206_29
*5861 FILLER_0_206_41
*5862 FILLER_0_206_49
*5863 FILLER_0_206_593
*5864 FILLER_0_206_605
*5865 FILLER_0_206_617
*5866 FILLER_0_206_619
*5867 FILLER_0_206_631
*5868 FILLER_0_206_643
*5869 FILLER_0_206_655
*5870 FILLER_0_206_9
*5871 FILLER_0_207_1201
*5872 FILLER_0_207_1213
*5873 FILLER_0_207_1225
*5874 FILLER_0_207_1237
*5875 FILLER_0_207_1249
*5876 FILLER_0_207_1253
*5877 FILLER_0_207_1255
*5878 FILLER_0_207_1267
*5879 FILLER_0_207_1279
*5880 FILLER_0_207_1291
*5881 FILLER_0_207_1303
*5882 FILLER_0_207_1309
*5883 FILLER_0_207_1311
*5884 FILLER_0_207_1323
*5885 FILLER_0_207_1335
*5886 FILLER_0_207_1343
*5887 FILLER_0_207_15
*5888 FILLER_0_207_27
*5889 FILLER_0_207_3
*5890 FILLER_0_207_39
*5891 FILLER_0_207_47
*5892 FILLER_0_207_593
*5893 FILLER_0_207_605
*5894 FILLER_0_207_617
*5895 FILLER_0_207_629
*5896 FILLER_0_207_641
*5897 FILLER_0_207_645
*5898 FILLER_0_207_647
*5899 FILLER_0_208_1201
*5900 FILLER_0_208_1213
*5901 FILLER_0_208_1225
*5902 FILLER_0_208_1227
*5903 FILLER_0_208_1239
*5904 FILLER_0_208_1251
*5905 FILLER_0_208_1263
*5906 FILLER_0_208_1275
*5907 FILLER_0_208_1281
*5908 FILLER_0_208_1283
*5909 FILLER_0_208_1295
*5910 FILLER_0_208_1307
*5911 FILLER_0_208_1319
*5912 FILLER_0_208_1331
*5913 FILLER_0_208_1337
*5914 FILLER_0_208_1339
*5915 FILLER_0_208_15
*5916 FILLER_0_208_27
*5917 FILLER_0_208_29
*5918 FILLER_0_208_3
*5919 FILLER_0_208_41
*5920 FILLER_0_208_49
*5921 FILLER_0_208_593
*5922 FILLER_0_208_605
*5923 FILLER_0_208_617
*5924 FILLER_0_208_619
*5925 FILLER_0_208_631
*5926 FILLER_0_208_643
*5927 FILLER_0_208_655
*5928 FILLER_0_209_1201
*5929 FILLER_0_209_1213
*5930 FILLER_0_209_1225
*5931 FILLER_0_209_1237
*5932 FILLER_0_209_1249
*5933 FILLER_0_209_1253
*5934 FILLER_0_209_1255
*5935 FILLER_0_209_1267
*5936 FILLER_0_209_1279
*5937 FILLER_0_209_1291
*5938 FILLER_0_209_1303
*5939 FILLER_0_209_1309
*5940 FILLER_0_209_1311
*5941 FILLER_0_209_1323
*5942 FILLER_0_209_1331
*5943 FILLER_0_209_15
*5944 FILLER_0_209_27
*5945 FILLER_0_209_3
*5946 FILLER_0_209_39
*5947 FILLER_0_209_47
*5948 FILLER_0_209_593
*5949 FILLER_0_209_605
*5950 FILLER_0_209_617
*5951 FILLER_0_209_629
*5952 FILLER_0_209_641
*5953 FILLER_0_209_645
*5954 FILLER_0_209_647
*5955 FILLER_0_20_1201
*5956 FILLER_0_20_1213
*5957 FILLER_0_20_1225
*5958 FILLER_0_20_1227
*5959 FILLER_0_20_1239
*5960 FILLER_0_20_1251
*5961 FILLER_0_20_1263
*5962 FILLER_0_20_1275
*5963 FILLER_0_20_1281
*5964 FILLER_0_20_1283
*5965 FILLER_0_20_1295
*5966 FILLER_0_20_1307
*5967 FILLER_0_20_1319
*5968 FILLER_0_20_1331
*5969 FILLER_0_20_1337
*5970 FILLER_0_20_1339
*5971 FILLER_0_20_1343
*5972 FILLER_0_20_15
*5973 FILLER_0_20_27
*5974 FILLER_0_20_29
*5975 FILLER_0_20_3
*5976 FILLER_0_20_41
*5977 FILLER_0_20_49
*5978 FILLER_0_20_593
*5979 FILLER_0_20_605
*5980 FILLER_0_20_617
*5981 FILLER_0_20_619
*5982 FILLER_0_20_631
*5983 FILLER_0_20_643
*5984 FILLER_0_20_655
*5985 FILLER_0_210_1000
*5986 FILLER_0_210_1009
*5987 FILLER_0_210_1015
*5988 FILLER_0_210_1027
*5989 FILLER_0_210_103
*5990 FILLER_0_210_1030
*5991 FILLER_0_210_1037
*5992 FILLER_0_210_1045
*5993 FILLER_0_210_1057
*5994 FILLER_0_210_106
*5995 FILLER_0_210_1060
*5996 FILLER_0_210_1065
*5997 FILLER_0_210_1075
*5998 FILLER_0_210_1087
*5999 FILLER_0_210_1090
*6000 FILLER_0_210_1093
*6001 FILLER_0_210_1101
*6002 FILLER_0_210_1105
*6003 FILLER_0_210_1117
*6004 FILLER_0_210_1121
*6005 FILLER_0_210_113
*6006 FILLER_0_210_1135
*6007 FILLER_0_210_1147
*6008 FILLER_0_210_1149
*6009 FILLER_0_210_1153
*6010 FILLER_0_210_1161
*6011 FILLER_0_210_1165
*6012 FILLER_0_210_1173
*6013 FILLER_0_210_1177
*6014 FILLER_0_210_1189
*6015 FILLER_0_210_1201
*6016 FILLER_0_210_1205
*6017 FILLER_0_210_121
*6018 FILLER_0_210_1217
*6019 FILLER_0_210_1229
*6020 FILLER_0_210_1233
*6021 FILLER_0_210_1245
*6022 FILLER_0_210_1257
*6023 FILLER_0_210_1261
*6024 FILLER_0_210_1273
*6025 FILLER_0_210_1285
*6026 FILLER_0_210_1289
*6027 FILLER_0_210_13
*6028 FILLER_0_210_1301
*6029 FILLER_0_210_1313
*6030 FILLER_0_210_1317
*6031 FILLER_0_210_1329
*6032 FILLER_0_210_133
*6033 FILLER_0_210_1341
*6034 FILLER_0_210_136
*6035 FILLER_0_210_141
*6036 FILLER_0_210_151
*6037 FILLER_0_210_163
*6038 FILLER_0_210_167
*6039 FILLER_0_210_169
*6040 FILLER_0_210_181
*6041 FILLER_0_210_193
*6042 FILLER_0_210_197
*6043 FILLER_0_210_209
*6044 FILLER_0_210_221
*6045 FILLER_0_210_225
*6046 FILLER_0_210_237
*6047 FILLER_0_210_249
*6048 FILLER_0_210_25
*6049 FILLER_0_210_253
*6050 FILLER_0_210_265
*6051 FILLER_0_210_277
*6052 FILLER_0_210_281
*6053 FILLER_0_210_29
*6054 FILLER_0_210_293
*6055 FILLER_0_210_305
*6056 FILLER_0_210_309
*6057 FILLER_0_210_321
*6058 FILLER_0_210_333
*6059 FILLER_0_210_337
*6060 FILLER_0_210_349
*6061 FILLER_0_210_361
*6062 FILLER_0_210_365
*6063 FILLER_0_210_377
*6064 FILLER_0_210_389
*6065 FILLER_0_210_393
*6066 FILLER_0_210_405
*6067 FILLER_0_210_41
*6068 FILLER_0_210_417
*6069 FILLER_0_210_421
*6070 FILLER_0_210_433
*6071 FILLER_0_210_445
*6072 FILLER_0_210_449
*6073 FILLER_0_210_461
*6074 FILLER_0_210_473
*6075 FILLER_0_210_477
*6076 FILLER_0_210_481
*6077 FILLER_0_210_493
*6078 FILLER_0_210_496
*6079 FILLER_0_210_505
*6080 FILLER_0_210_511
*6081 FILLER_0_210_523
*6082 FILLER_0_210_526
*6083 FILLER_0_210_53
*6084 FILLER_0_210_533
*6085 FILLER_0_210_541
*6086 FILLER_0_210_553
*6087 FILLER_0_210_556
*6088 FILLER_0_210_561
*6089 FILLER_0_210_57
*6090 FILLER_0_210_573
*6091 FILLER_0_210_585
*6092 FILLER_0_210_589
*6093 FILLER_0_210_601
*6094 FILLER_0_210_613
*6095 FILLER_0_210_617
*6096 FILLER_0_210_629
*6097 FILLER_0_210_641
*6098 FILLER_0_210_645
*6099 FILLER_0_210_657
*6100 FILLER_0_210_669
*6101 FILLER_0_210_673
*6102 FILLER_0_210_685
*6103 FILLER_0_210_69
*6104 FILLER_0_210_697
*6105 FILLER_0_210_701
*6106 FILLER_0_210_713
*6107 FILLER_0_210_725
*6108 FILLER_0_210_729
*6109 FILLER_0_210_741
*6110 FILLER_0_210_753
*6111 FILLER_0_210_757
*6112 FILLER_0_210_769
*6113 FILLER_0_210_781
*6114 FILLER_0_210_785
*6115 FILLER_0_210_797
*6116 FILLER_0_210_809
*6117 FILLER_0_210_81
*6118 FILLER_0_210_813
*6119 FILLER_0_210_825
*6120 FILLER_0_210_837
*6121 FILLER_0_210_841
*6122 FILLER_0_210_85
*6123 FILLER_0_210_853
*6124 FILLER_0_210_865
*6125 FILLER_0_210_869
*6126 FILLER_0_210_877
*6127 FILLER_0_210_880
*6128 FILLER_0_210_892
*6129 FILLER_0_210_895
*6130 FILLER_0_210_897
*6131 FILLER_0_210_9
*6132 FILLER_0_210_905
*6133 FILLER_0_210_91
*6134 FILLER_0_210_910
*6135 FILLER_0_210_922
*6136 FILLER_0_210_925
*6137 FILLER_0_210_929
*6138 FILLER_0_210_937
*6139 FILLER_0_210_940
*6140 FILLER_0_210_953
*6141 FILLER_0_210_957
*6142 FILLER_0_210_965
*6143 FILLER_0_210_970
*6144 FILLER_0_210_978
*6145 FILLER_0_210_981
*6146 FILLER_0_210_985
*6147 FILLER_0_210_997
*6148 FILLER_0_211_1001
*6149 FILLER_0_211_1007
*6150 FILLER_0_211_1009
*6151 FILLER_0_211_1021
*6152 FILLER_0_211_1033
*6153 FILLER_0_211_1045
*6154 FILLER_0_211_105
*6155 FILLER_0_211_1057
*6156 FILLER_0_211_1063
*6157 FILLER_0_211_1065
*6158 FILLER_0_211_1077
*6159 FILLER_0_211_1089
*6160 FILLER_0_211_1101
*6161 FILLER_0_211_111
*6162 FILLER_0_211_1113
*6163 FILLER_0_211_1119
*6164 FILLER_0_211_1121
*6165 FILLER_0_211_113
*6166 FILLER_0_211_1133
*6167 FILLER_0_211_1145
*6168 FILLER_0_211_1157
*6169 FILLER_0_211_1169
*6170 FILLER_0_211_1175
*6171 FILLER_0_211_1177
*6172 FILLER_0_211_1189
*6173 FILLER_0_211_1201
*6174 FILLER_0_211_1213
*6175 FILLER_0_211_1225
*6176 FILLER_0_211_1231
*6177 FILLER_0_211_1233
*6178 FILLER_0_211_1245
*6179 FILLER_0_211_125
*6180 FILLER_0_211_1257
*6181 FILLER_0_211_1269
*6182 FILLER_0_211_1281
*6183 FILLER_0_211_1287
*6184 FILLER_0_211_1289
*6185 FILLER_0_211_1301
*6186 FILLER_0_211_1313
*6187 FILLER_0_211_1325
*6188 FILLER_0_211_1337
*6189 FILLER_0_211_1343
*6190 FILLER_0_211_137
*6191 FILLER_0_211_149
*6192 FILLER_0_211_15
*6193 FILLER_0_211_161
*6194 FILLER_0_211_167
*6195 FILLER_0_211_169
*6196 FILLER_0_211_181
*6197 FILLER_0_211_193
*6198 FILLER_0_211_205
*6199 FILLER_0_211_217
*6200 FILLER_0_211_223
*6201 FILLER_0_211_225
*6202 FILLER_0_211_237
*6203 FILLER_0_211_249
*6204 FILLER_0_211_261
*6205 FILLER_0_211_27
*6206 FILLER_0_211_273
*6207 FILLER_0_211_279
*6208 FILLER_0_211_281
*6209 FILLER_0_211_293
*6210 FILLER_0_211_3
*6211 FILLER_0_211_305
*6212 FILLER_0_211_317
*6213 FILLER_0_211_329
*6214 FILLER_0_211_335
*6215 FILLER_0_211_337
*6216 FILLER_0_211_349
*6217 FILLER_0_211_361
*6218 FILLER_0_211_373
*6219 FILLER_0_211_385
*6220 FILLER_0_211_39
*6221 FILLER_0_211_391
*6222 FILLER_0_211_393
*6223 FILLER_0_211_405
*6224 FILLER_0_211_417
*6225 FILLER_0_211_429
*6226 FILLER_0_211_441
*6227 FILLER_0_211_447
*6228 FILLER_0_211_449
*6229 FILLER_0_211_461
*6230 FILLER_0_211_473
*6231 FILLER_0_211_485
*6232 FILLER_0_211_497
*6233 FILLER_0_211_503
*6234 FILLER_0_211_505
*6235 FILLER_0_211_51
*6236 FILLER_0_211_517
*6237 FILLER_0_211_529
*6238 FILLER_0_211_541
*6239 FILLER_0_211_55
*6240 FILLER_0_211_553
*6241 FILLER_0_211_559
*6242 FILLER_0_211_561
*6243 FILLER_0_211_57
*6244 FILLER_0_211_573
*6245 FILLER_0_211_585
*6246 FILLER_0_211_597
*6247 FILLER_0_211_609
*6248 FILLER_0_211_615
*6249 FILLER_0_211_617
*6250 FILLER_0_211_629
*6251 FILLER_0_211_641
*6252 FILLER_0_211_653
*6253 FILLER_0_211_665
*6254 FILLER_0_211_671
*6255 FILLER_0_211_673
*6256 FILLER_0_211_685
*6257 FILLER_0_211_69
*6258 FILLER_0_211_697
*6259 FILLER_0_211_709
*6260 FILLER_0_211_721
*6261 FILLER_0_211_727
*6262 FILLER_0_211_729
*6263 FILLER_0_211_741
*6264 FILLER_0_211_753
*6265 FILLER_0_211_765
*6266 FILLER_0_211_777
*6267 FILLER_0_211_783
*6268 FILLER_0_211_785
*6269 FILLER_0_211_797
*6270 FILLER_0_211_809
*6271 FILLER_0_211_81
*6272 FILLER_0_211_821
*6273 FILLER_0_211_833
*6274 FILLER_0_211_839
*6275 FILLER_0_211_841
*6276 FILLER_0_211_853
*6277 FILLER_0_211_865
*6278 FILLER_0_211_877
*6279 FILLER_0_211_889
*6280 FILLER_0_211_895
*6281 FILLER_0_211_897
*6282 FILLER_0_211_909
*6283 FILLER_0_211_921
*6284 FILLER_0_211_93
*6285 FILLER_0_211_933
*6286 FILLER_0_211_945
*6287 FILLER_0_211_951
*6288 FILLER_0_211_953
*6289 FILLER_0_211_965
*6290 FILLER_0_211_977
*6291 FILLER_0_211_989
*6292 FILLER_0_212_1005
*6293 FILLER_0_212_1017
*6294 FILLER_0_212_1029
*6295 FILLER_0_212_1035
*6296 FILLER_0_212_1037
*6297 FILLER_0_212_1049
*6298 FILLER_0_212_1061
*6299 FILLER_0_212_1073
*6300 FILLER_0_212_1085
*6301 FILLER_0_212_109
*6302 FILLER_0_212_1091
*6303 FILLER_0_212_1093
*6304 FILLER_0_212_1105
*6305 FILLER_0_212_1117
*6306 FILLER_0_212_1129
*6307 FILLER_0_212_1141
*6308 FILLER_0_212_1147
*6309 FILLER_0_212_1149
*6310 FILLER_0_212_1161
*6311 FILLER_0_212_1173
*6312 FILLER_0_212_1185
*6313 FILLER_0_212_1197
*6314 FILLER_0_212_1203
*6315 FILLER_0_212_1205
*6316 FILLER_0_212_121
*6317 FILLER_0_212_1217
*6318 FILLER_0_212_1229
*6319 FILLER_0_212_1241
*6320 FILLER_0_212_1253
*6321 FILLER_0_212_1259
*6322 FILLER_0_212_1261
*6323 FILLER_0_212_1273
*6324 FILLER_0_212_1285
*6325 FILLER_0_212_1297
*6326 FILLER_0_212_1309
*6327 FILLER_0_212_1315
*6328 FILLER_0_212_1317
*6329 FILLER_0_212_1329
*6330 FILLER_0_212_133
*6331 FILLER_0_212_1341
*6332 FILLER_0_212_139
*6333 FILLER_0_212_141
*6334 FILLER_0_212_15
*6335 FILLER_0_212_153
*6336 FILLER_0_212_165
*6337 FILLER_0_212_177
*6338 FILLER_0_212_189
*6339 FILLER_0_212_195
*6340 FILLER_0_212_197
*6341 FILLER_0_212_209
*6342 FILLER_0_212_221
*6343 FILLER_0_212_233
*6344 FILLER_0_212_245
*6345 FILLER_0_212_251
*6346 FILLER_0_212_253
*6347 FILLER_0_212_265
*6348 FILLER_0_212_27
*6349 FILLER_0_212_277
*6350 FILLER_0_212_289
*6351 FILLER_0_212_29
*6352 FILLER_0_212_3
*6353 FILLER_0_212_301
*6354 FILLER_0_212_307
*6355 FILLER_0_212_309
*6356 FILLER_0_212_321
*6357 FILLER_0_212_333
*6358 FILLER_0_212_345
*6359 FILLER_0_212_357
*6360 FILLER_0_212_363
*6361 FILLER_0_212_365
*6362 FILLER_0_212_377
*6363 FILLER_0_212_389
*6364 FILLER_0_212_401
*6365 FILLER_0_212_41
*6366 FILLER_0_212_413
*6367 FILLER_0_212_419
*6368 FILLER_0_212_421
*6369 FILLER_0_212_433
*6370 FILLER_0_212_445
*6371 FILLER_0_212_457
*6372 FILLER_0_212_469
*6373 FILLER_0_212_475
*6374 FILLER_0_212_477
*6375 FILLER_0_212_489
*6376 FILLER_0_212_501
*6377 FILLER_0_212_513
*6378 FILLER_0_212_525
*6379 FILLER_0_212_53
*6380 FILLER_0_212_531
*6381 FILLER_0_212_533
*6382 FILLER_0_212_545
*6383 FILLER_0_212_557
*6384 FILLER_0_212_569
*6385 FILLER_0_212_581
*6386 FILLER_0_212_587
*6387 FILLER_0_212_589
*6388 FILLER_0_212_601
*6389 FILLER_0_212_613
*6390 FILLER_0_212_625
*6391 FILLER_0_212_637
*6392 FILLER_0_212_643
*6393 FILLER_0_212_645
*6394 FILLER_0_212_65
*6395 FILLER_0_212_657
*6396 FILLER_0_212_669
*6397 FILLER_0_212_681
*6398 FILLER_0_212_693
*6399 FILLER_0_212_699
*6400 FILLER_0_212_701
*6401 FILLER_0_212_713
*6402 FILLER_0_212_725
*6403 FILLER_0_212_737
*6404 FILLER_0_212_749
*6405 FILLER_0_212_755
*6406 FILLER_0_212_757
*6407 FILLER_0_212_769
*6408 FILLER_0_212_77
*6409 FILLER_0_212_781
*6410 FILLER_0_212_793
*6411 FILLER_0_212_805
*6412 FILLER_0_212_811
*6413 FILLER_0_212_813
*6414 FILLER_0_212_825
*6415 FILLER_0_212_83
*6416 FILLER_0_212_837
*6417 FILLER_0_212_849
*6418 FILLER_0_212_85
*6419 FILLER_0_212_861
*6420 FILLER_0_212_867
*6421 FILLER_0_212_869
*6422 FILLER_0_212_881
*6423 FILLER_0_212_893
*6424 FILLER_0_212_905
*6425 FILLER_0_212_917
*6426 FILLER_0_212_923
*6427 FILLER_0_212_925
*6428 FILLER_0_212_937
*6429 FILLER_0_212_949
*6430 FILLER_0_212_961
*6431 FILLER_0_212_97
*6432 FILLER_0_212_973
*6433 FILLER_0_212_979
*6434 FILLER_0_212_981
*6435 FILLER_0_212_993
*6436 FILLER_0_213_1001
*6437 FILLER_0_213_1007
*6438 FILLER_0_213_1009
*6439 FILLER_0_213_1021
*6440 FILLER_0_213_1033
*6441 FILLER_0_213_1045
*6442 FILLER_0_213_105
*6443 FILLER_0_213_1057
*6444 FILLER_0_213_1063
*6445 FILLER_0_213_1065
*6446 FILLER_0_213_1077
*6447 FILLER_0_213_1089
*6448 FILLER_0_213_1101
*6449 FILLER_0_213_111
*6450 FILLER_0_213_1113
*6451 FILLER_0_213_1119
*6452 FILLER_0_213_1121
*6453 FILLER_0_213_113
*6454 FILLER_0_213_1133
*6455 FILLER_0_213_1145
*6456 FILLER_0_213_1157
*6457 FILLER_0_213_1169
*6458 FILLER_0_213_1175
*6459 FILLER_0_213_1177
*6460 FILLER_0_213_1189
*6461 FILLER_0_213_1201
*6462 FILLER_0_213_1213
*6463 FILLER_0_213_1225
*6464 FILLER_0_213_1231
*6465 FILLER_0_213_1233
*6466 FILLER_0_213_1245
*6467 FILLER_0_213_125
*6468 FILLER_0_213_1257
*6469 FILLER_0_213_1269
*6470 FILLER_0_213_1281
*6471 FILLER_0_213_1287
*6472 FILLER_0_213_1289
*6473 FILLER_0_213_13
*6474 FILLER_0_213_1301
*6475 FILLER_0_213_1313
*6476 FILLER_0_213_1325
*6477 FILLER_0_213_1337
*6478 FILLER_0_213_1343
*6479 FILLER_0_213_137
*6480 FILLER_0_213_149
*6481 FILLER_0_213_161
*6482 FILLER_0_213_167
*6483 FILLER_0_213_169
*6484 FILLER_0_213_181
*6485 FILLER_0_213_193
*6486 FILLER_0_213_205
*6487 FILLER_0_213_217
*6488 FILLER_0_213_223
*6489 FILLER_0_213_225
*6490 FILLER_0_213_237
*6491 FILLER_0_213_249
*6492 FILLER_0_213_25
*6493 FILLER_0_213_261
*6494 FILLER_0_213_273
*6495 FILLER_0_213_279
*6496 FILLER_0_213_281
*6497 FILLER_0_213_293
*6498 FILLER_0_213_305
*6499 FILLER_0_213_317
*6500 FILLER_0_213_329
*6501 FILLER_0_213_335
*6502 FILLER_0_213_337
*6503 FILLER_0_213_349
*6504 FILLER_0_213_361
*6505 FILLER_0_213_37
*6506 FILLER_0_213_373
*6507 FILLER_0_213_385
*6508 FILLER_0_213_391
*6509 FILLER_0_213_393
*6510 FILLER_0_213_405
*6511 FILLER_0_213_417
*6512 FILLER_0_213_429
*6513 FILLER_0_213_441
*6514 FILLER_0_213_447
*6515 FILLER_0_213_449
*6516 FILLER_0_213_461
*6517 FILLER_0_213_473
*6518 FILLER_0_213_485
*6519 FILLER_0_213_49
*6520 FILLER_0_213_497
*6521 FILLER_0_213_503
*6522 FILLER_0_213_505
*6523 FILLER_0_213_517
*6524 FILLER_0_213_529
*6525 FILLER_0_213_541
*6526 FILLER_0_213_55
*6527 FILLER_0_213_553
*6528 FILLER_0_213_559
*6529 FILLER_0_213_561
*6530 FILLER_0_213_57
*6531 FILLER_0_213_573
*6532 FILLER_0_213_585
*6533 FILLER_0_213_597
*6534 FILLER_0_213_609
*6535 FILLER_0_213_615
*6536 FILLER_0_213_617
*6537 FILLER_0_213_629
*6538 FILLER_0_213_641
*6539 FILLER_0_213_653
*6540 FILLER_0_213_665
*6541 FILLER_0_213_671
*6542 FILLER_0_213_673
*6543 FILLER_0_213_685
*6544 FILLER_0_213_69
*6545 FILLER_0_213_697
*6546 FILLER_0_213_709
*6547 FILLER_0_213_721
*6548 FILLER_0_213_727
*6549 FILLER_0_213_729
*6550 FILLER_0_213_741
*6551 FILLER_0_213_753
*6552 FILLER_0_213_765
*6553 FILLER_0_213_777
*6554 FILLER_0_213_783
*6555 FILLER_0_213_785
*6556 FILLER_0_213_797
*6557 FILLER_0_213_809
*6558 FILLER_0_213_81
*6559 FILLER_0_213_821
*6560 FILLER_0_213_833
*6561 FILLER_0_213_839
*6562 FILLER_0_213_841
*6563 FILLER_0_213_853
*6564 FILLER_0_213_865
*6565 FILLER_0_213_877
*6566 FILLER_0_213_889
*6567 FILLER_0_213_895
*6568 FILLER_0_213_897
*6569 FILLER_0_213_9
*6570 FILLER_0_213_909
*6571 FILLER_0_213_921
*6572 FILLER_0_213_93
*6573 FILLER_0_213_933
*6574 FILLER_0_213_945
*6575 FILLER_0_213_951
*6576 FILLER_0_213_953
*6577 FILLER_0_213_965
*6578 FILLER_0_213_977
*6579 FILLER_0_213_989
*6580 FILLER_0_214_1005
*6581 FILLER_0_214_1017
*6582 FILLER_0_214_1029
*6583 FILLER_0_214_1035
*6584 FILLER_0_214_1037
*6585 FILLER_0_214_1049
*6586 FILLER_0_214_1061
*6587 FILLER_0_214_1073
*6588 FILLER_0_214_1085
*6589 FILLER_0_214_109
*6590 FILLER_0_214_1091
*6591 FILLER_0_214_1093
*6592 FILLER_0_214_1105
*6593 FILLER_0_214_1117
*6594 FILLER_0_214_1129
*6595 FILLER_0_214_1141
*6596 FILLER_0_214_1147
*6597 FILLER_0_214_1149
*6598 FILLER_0_214_1161
*6599 FILLER_0_214_1173
*6600 FILLER_0_214_1185
*6601 FILLER_0_214_1197
*6602 FILLER_0_214_1203
*6603 FILLER_0_214_1205
*6604 FILLER_0_214_121
*6605 FILLER_0_214_1217
*6606 FILLER_0_214_1229
*6607 FILLER_0_214_1241
*6608 FILLER_0_214_1253
*6609 FILLER_0_214_1259
*6610 FILLER_0_214_1261
*6611 FILLER_0_214_1273
*6612 FILLER_0_214_1285
*6613 FILLER_0_214_1297
*6614 FILLER_0_214_1309
*6615 FILLER_0_214_1315
*6616 FILLER_0_214_1317
*6617 FILLER_0_214_1329
*6618 FILLER_0_214_133
*6619 FILLER_0_214_1341
*6620 FILLER_0_214_139
*6621 FILLER_0_214_141
*6622 FILLER_0_214_15
*6623 FILLER_0_214_153
*6624 FILLER_0_214_165
*6625 FILLER_0_214_177
*6626 FILLER_0_214_189
*6627 FILLER_0_214_195
*6628 FILLER_0_214_197
*6629 FILLER_0_214_209
*6630 FILLER_0_214_221
*6631 FILLER_0_214_233
*6632 FILLER_0_214_245
*6633 FILLER_0_214_251
*6634 FILLER_0_214_253
*6635 FILLER_0_214_265
*6636 FILLER_0_214_27
*6637 FILLER_0_214_277
*6638 FILLER_0_214_289
*6639 FILLER_0_214_29
*6640 FILLER_0_214_3
*6641 FILLER_0_214_301
*6642 FILLER_0_214_307
*6643 FILLER_0_214_309
*6644 FILLER_0_214_321
*6645 FILLER_0_214_333
*6646 FILLER_0_214_345
*6647 FILLER_0_214_357
*6648 FILLER_0_214_363
*6649 FILLER_0_214_365
*6650 FILLER_0_214_377
*6651 FILLER_0_214_389
*6652 FILLER_0_214_401
*6653 FILLER_0_214_41
*6654 FILLER_0_214_413
*6655 FILLER_0_214_419
*6656 FILLER_0_214_421
*6657 FILLER_0_214_433
*6658 FILLER_0_214_445
*6659 FILLER_0_214_457
*6660 FILLER_0_214_469
*6661 FILLER_0_214_475
*6662 FILLER_0_214_477
*6663 FILLER_0_214_489
*6664 FILLER_0_214_501
*6665 FILLER_0_214_513
*6666 FILLER_0_214_525
*6667 FILLER_0_214_53
*6668 FILLER_0_214_531
*6669 FILLER_0_214_533
*6670 FILLER_0_214_545
*6671 FILLER_0_214_557
*6672 FILLER_0_214_569
*6673 FILLER_0_214_581
*6674 FILLER_0_214_587
*6675 FILLER_0_214_589
*6676 FILLER_0_214_601
*6677 FILLER_0_214_613
*6678 FILLER_0_214_625
*6679 FILLER_0_214_637
*6680 FILLER_0_214_643
*6681 FILLER_0_214_645
*6682 FILLER_0_214_65
*6683 FILLER_0_214_657
*6684 FILLER_0_214_669
*6685 FILLER_0_214_681
*6686 FILLER_0_214_693
*6687 FILLER_0_214_699
*6688 FILLER_0_214_701
*6689 FILLER_0_214_713
*6690 FILLER_0_214_725
*6691 FILLER_0_214_737
*6692 FILLER_0_214_749
*6693 FILLER_0_214_755
*6694 FILLER_0_214_757
*6695 FILLER_0_214_769
*6696 FILLER_0_214_77
*6697 FILLER_0_214_781
*6698 FILLER_0_214_793
*6699 FILLER_0_214_805
*6700 FILLER_0_214_811
*6701 FILLER_0_214_813
*6702 FILLER_0_214_825
*6703 FILLER_0_214_83
*6704 FILLER_0_214_837
*6705 FILLER_0_214_849
*6706 FILLER_0_214_85
*6707 FILLER_0_214_861
*6708 FILLER_0_214_867
*6709 FILLER_0_214_869
*6710 FILLER_0_214_881
*6711 FILLER_0_214_893
*6712 FILLER_0_214_905
*6713 FILLER_0_214_917
*6714 FILLER_0_214_923
*6715 FILLER_0_214_925
*6716 FILLER_0_214_937
*6717 FILLER_0_214_949
*6718 FILLER_0_214_961
*6719 FILLER_0_214_97
*6720 FILLER_0_214_973
*6721 FILLER_0_214_979
*6722 FILLER_0_214_981
*6723 FILLER_0_214_993
*6724 FILLER_0_215_1001
*6725 FILLER_0_215_1007
*6726 FILLER_0_215_1009
*6727 FILLER_0_215_1021
*6728 FILLER_0_215_1033
*6729 FILLER_0_215_1045
*6730 FILLER_0_215_105
*6731 FILLER_0_215_1057
*6732 FILLER_0_215_1063
*6733 FILLER_0_215_1065
*6734 FILLER_0_215_1077
*6735 FILLER_0_215_1089
*6736 FILLER_0_215_1101
*6737 FILLER_0_215_111
*6738 FILLER_0_215_1113
*6739 FILLER_0_215_1119
*6740 FILLER_0_215_1121
*6741 FILLER_0_215_113
*6742 FILLER_0_215_1133
*6743 FILLER_0_215_1145
*6744 FILLER_0_215_1157
*6745 FILLER_0_215_1169
*6746 FILLER_0_215_1175
*6747 FILLER_0_215_1177
*6748 FILLER_0_215_1189
*6749 FILLER_0_215_1201
*6750 FILLER_0_215_1213
*6751 FILLER_0_215_1225
*6752 FILLER_0_215_1231
*6753 FILLER_0_215_1233
*6754 FILLER_0_215_1245
*6755 FILLER_0_215_125
*6756 FILLER_0_215_1257
*6757 FILLER_0_215_1269
*6758 FILLER_0_215_1281
*6759 FILLER_0_215_1287
*6760 FILLER_0_215_1289
*6761 FILLER_0_215_1301
*6762 FILLER_0_215_1313
*6763 FILLER_0_215_1325
*6764 FILLER_0_215_137
*6765 FILLER_0_215_149
*6766 FILLER_0_215_15
*6767 FILLER_0_215_161
*6768 FILLER_0_215_167
*6769 FILLER_0_215_169
*6770 FILLER_0_215_181
*6771 FILLER_0_215_193
*6772 FILLER_0_215_205
*6773 FILLER_0_215_217
*6774 FILLER_0_215_223
*6775 FILLER_0_215_225
*6776 FILLER_0_215_237
*6777 FILLER_0_215_249
*6778 FILLER_0_215_261
*6779 FILLER_0_215_27
*6780 FILLER_0_215_273
*6781 FILLER_0_215_279
*6782 FILLER_0_215_281
*6783 FILLER_0_215_293
*6784 FILLER_0_215_3
*6785 FILLER_0_215_305
*6786 FILLER_0_215_317
*6787 FILLER_0_215_329
*6788 FILLER_0_215_335
*6789 FILLER_0_215_337
*6790 FILLER_0_215_349
*6791 FILLER_0_215_361
*6792 FILLER_0_215_373
*6793 FILLER_0_215_385
*6794 FILLER_0_215_39
*6795 FILLER_0_215_391
*6796 FILLER_0_215_393
*6797 FILLER_0_215_405
*6798 FILLER_0_215_417
*6799 FILLER_0_215_429
*6800 FILLER_0_215_441
*6801 FILLER_0_215_447
*6802 FILLER_0_215_449
*6803 FILLER_0_215_461
*6804 FILLER_0_215_473
*6805 FILLER_0_215_485
*6806 FILLER_0_215_497
*6807 FILLER_0_215_503
*6808 FILLER_0_215_505
*6809 FILLER_0_215_51
*6810 FILLER_0_215_517
*6811 FILLER_0_215_529
*6812 FILLER_0_215_541
*6813 FILLER_0_215_55
*6814 FILLER_0_215_553
*6815 FILLER_0_215_559
*6816 FILLER_0_215_561
*6817 FILLER_0_215_57
*6818 FILLER_0_215_573
*6819 FILLER_0_215_585
*6820 FILLER_0_215_597
*6821 FILLER_0_215_609
*6822 FILLER_0_215_615
*6823 FILLER_0_215_617
*6824 FILLER_0_215_629
*6825 FILLER_0_215_641
*6826 FILLER_0_215_653
*6827 FILLER_0_215_665
*6828 FILLER_0_215_671
*6829 FILLER_0_215_673
*6830 FILLER_0_215_685
*6831 FILLER_0_215_69
*6832 FILLER_0_215_697
*6833 FILLER_0_215_709
*6834 FILLER_0_215_721
*6835 FILLER_0_215_727
*6836 FILLER_0_215_729
*6837 FILLER_0_215_741
*6838 FILLER_0_215_753
*6839 FILLER_0_215_765
*6840 FILLER_0_215_777
*6841 FILLER_0_215_783
*6842 FILLER_0_215_785
*6843 FILLER_0_215_797
*6844 FILLER_0_215_809
*6845 FILLER_0_215_81
*6846 FILLER_0_215_821
*6847 FILLER_0_215_833
*6848 FILLER_0_215_839
*6849 FILLER_0_215_841
*6850 FILLER_0_215_853
*6851 FILLER_0_215_865
*6852 FILLER_0_215_877
*6853 FILLER_0_215_889
*6854 FILLER_0_215_895
*6855 FILLER_0_215_897
*6856 FILLER_0_215_909
*6857 FILLER_0_215_921
*6858 FILLER_0_215_93
*6859 FILLER_0_215_933
*6860 FILLER_0_215_945
*6861 FILLER_0_215_951
*6862 FILLER_0_215_953
*6863 FILLER_0_215_965
*6864 FILLER_0_215_977
*6865 FILLER_0_215_989
*6866 FILLER_0_216_1005
*6867 FILLER_0_216_1017
*6868 FILLER_0_216_1029
*6869 FILLER_0_216_1035
*6870 FILLER_0_216_1037
*6871 FILLER_0_216_1049
*6872 FILLER_0_216_1061
*6873 FILLER_0_216_1073
*6874 FILLER_0_216_1085
*6875 FILLER_0_216_109
*6876 FILLER_0_216_1091
*6877 FILLER_0_216_1093
*6878 FILLER_0_216_1105
*6879 FILLER_0_216_1117
*6880 FILLER_0_216_1129
*6881 FILLER_0_216_1141
*6882 FILLER_0_216_1147
*6883 FILLER_0_216_1149
*6884 FILLER_0_216_1161
*6885 FILLER_0_216_1173
*6886 FILLER_0_216_1185
*6887 FILLER_0_216_1197
*6888 FILLER_0_216_1203
*6889 FILLER_0_216_1205
*6890 FILLER_0_216_121
*6891 FILLER_0_216_1217
*6892 FILLER_0_216_1229
*6893 FILLER_0_216_1241
*6894 FILLER_0_216_1253
*6895 FILLER_0_216_1259
*6896 FILLER_0_216_1261
*6897 FILLER_0_216_1273
*6898 FILLER_0_216_1285
*6899 FILLER_0_216_1297
*6900 FILLER_0_216_1309
*6901 FILLER_0_216_1315
*6902 FILLER_0_216_1317
*6903 FILLER_0_216_1329
*6904 FILLER_0_216_133
*6905 FILLER_0_216_1341
*6906 FILLER_0_216_139
*6907 FILLER_0_216_141
*6908 FILLER_0_216_15
*6909 FILLER_0_216_153
*6910 FILLER_0_216_165
*6911 FILLER_0_216_177
*6912 FILLER_0_216_189
*6913 FILLER_0_216_195
*6914 FILLER_0_216_197
*6915 FILLER_0_216_209
*6916 FILLER_0_216_221
*6917 FILLER_0_216_233
*6918 FILLER_0_216_245
*6919 FILLER_0_216_251
*6920 FILLER_0_216_253
*6921 FILLER_0_216_265
*6922 FILLER_0_216_27
*6923 FILLER_0_216_277
*6924 FILLER_0_216_289
*6925 FILLER_0_216_29
*6926 FILLER_0_216_3
*6927 FILLER_0_216_301
*6928 FILLER_0_216_307
*6929 FILLER_0_216_309
*6930 FILLER_0_216_321
*6931 FILLER_0_216_333
*6932 FILLER_0_216_345
*6933 FILLER_0_216_357
*6934 FILLER_0_216_363
*6935 FILLER_0_216_365
*6936 FILLER_0_216_377
*6937 FILLER_0_216_389
*6938 FILLER_0_216_401
*6939 FILLER_0_216_41
*6940 FILLER_0_216_413
*6941 FILLER_0_216_419
*6942 FILLER_0_216_421
*6943 FILLER_0_216_433
*6944 FILLER_0_216_445
*6945 FILLER_0_216_457
*6946 FILLER_0_216_469
*6947 FILLER_0_216_475
*6948 FILLER_0_216_477
*6949 FILLER_0_216_489
*6950 FILLER_0_216_501
*6951 FILLER_0_216_513
*6952 FILLER_0_216_525
*6953 FILLER_0_216_53
*6954 FILLER_0_216_531
*6955 FILLER_0_216_533
*6956 FILLER_0_216_545
*6957 FILLER_0_216_557
*6958 FILLER_0_216_569
*6959 FILLER_0_216_581
*6960 FILLER_0_216_587
*6961 FILLER_0_216_589
*6962 FILLER_0_216_601
*6963 FILLER_0_216_613
*6964 FILLER_0_216_625
*6965 FILLER_0_216_637
*6966 FILLER_0_216_643
*6967 FILLER_0_216_645
*6968 FILLER_0_216_65
*6969 FILLER_0_216_657
*6970 FILLER_0_216_669
*6971 FILLER_0_216_681
*6972 FILLER_0_216_693
*6973 FILLER_0_216_699
*6974 FILLER_0_216_701
*6975 FILLER_0_216_713
*6976 FILLER_0_216_725
*6977 FILLER_0_216_737
*6978 FILLER_0_216_749
*6979 FILLER_0_216_755
*6980 FILLER_0_216_757
*6981 FILLER_0_216_769
*6982 FILLER_0_216_77
*6983 FILLER_0_216_781
*6984 FILLER_0_216_793
*6985 FILLER_0_216_805
*6986 FILLER_0_216_811
*6987 FILLER_0_216_813
*6988 FILLER_0_216_825
*6989 FILLER_0_216_83
*6990 FILLER_0_216_837
*6991 FILLER_0_216_849
*6992 FILLER_0_216_85
*6993 FILLER_0_216_861
*6994 FILLER_0_216_867
*6995 FILLER_0_216_869
*6996 FILLER_0_216_881
*6997 FILLER_0_216_893
*6998 FILLER_0_216_905
*6999 FILLER_0_216_917
*7000 FILLER_0_216_923
*7001 FILLER_0_216_925
*7002 FILLER_0_216_937
*7003 FILLER_0_216_949
*7004 FILLER_0_216_961
*7005 FILLER_0_216_97
*7006 FILLER_0_216_973
*7007 FILLER_0_216_979
*7008 FILLER_0_216_981
*7009 FILLER_0_216_993
*7010 FILLER_0_217_1001
*7011 FILLER_0_217_1007
*7012 FILLER_0_217_1009
*7013 FILLER_0_217_1021
*7014 FILLER_0_217_1033
*7015 FILLER_0_217_1045
*7016 FILLER_0_217_105
*7017 FILLER_0_217_1057
*7018 FILLER_0_217_1063
*7019 FILLER_0_217_1065
*7020 FILLER_0_217_1077
*7021 FILLER_0_217_1089
*7022 FILLER_0_217_1101
*7023 FILLER_0_217_111
*7024 FILLER_0_217_1113
*7025 FILLER_0_217_1119
*7026 FILLER_0_217_1121
*7027 FILLER_0_217_113
*7028 FILLER_0_217_1133
*7029 FILLER_0_217_1145
*7030 FILLER_0_217_1157
*7031 FILLER_0_217_1169
*7032 FILLER_0_217_1175
*7033 FILLER_0_217_1177
*7034 FILLER_0_217_1189
*7035 FILLER_0_217_1201
*7036 FILLER_0_217_1213
*7037 FILLER_0_217_1225
*7038 FILLER_0_217_1231
*7039 FILLER_0_217_1233
*7040 FILLER_0_217_1245
*7041 FILLER_0_217_125
*7042 FILLER_0_217_1257
*7043 FILLER_0_217_1269
*7044 FILLER_0_217_1281
*7045 FILLER_0_217_1287
*7046 FILLER_0_217_1289
*7047 FILLER_0_217_13
*7048 FILLER_0_217_1301
*7049 FILLER_0_217_1313
*7050 FILLER_0_217_1325
*7051 FILLER_0_217_1337
*7052 FILLER_0_217_1343
*7053 FILLER_0_217_137
*7054 FILLER_0_217_149
*7055 FILLER_0_217_161
*7056 FILLER_0_217_167
*7057 FILLER_0_217_169
*7058 FILLER_0_217_181
*7059 FILLER_0_217_193
*7060 FILLER_0_217_205
*7061 FILLER_0_217_217
*7062 FILLER_0_217_223
*7063 FILLER_0_217_225
*7064 FILLER_0_217_237
*7065 FILLER_0_217_249
*7066 FILLER_0_217_25
*7067 FILLER_0_217_261
*7068 FILLER_0_217_273
*7069 FILLER_0_217_279
*7070 FILLER_0_217_281
*7071 FILLER_0_217_293
*7072 FILLER_0_217_305
*7073 FILLER_0_217_317
*7074 FILLER_0_217_329
*7075 FILLER_0_217_335
*7076 FILLER_0_217_337
*7077 FILLER_0_217_349
*7078 FILLER_0_217_361
*7079 FILLER_0_217_37
*7080 FILLER_0_217_373
*7081 FILLER_0_217_385
*7082 FILLER_0_217_391
*7083 FILLER_0_217_393
*7084 FILLER_0_217_405
*7085 FILLER_0_217_417
*7086 FILLER_0_217_429
*7087 FILLER_0_217_441
*7088 FILLER_0_217_447
*7089 FILLER_0_217_449
*7090 FILLER_0_217_461
*7091 FILLER_0_217_473
*7092 FILLER_0_217_485
*7093 FILLER_0_217_49
*7094 FILLER_0_217_497
*7095 FILLER_0_217_503
*7096 FILLER_0_217_505
*7097 FILLER_0_217_517
*7098 FILLER_0_217_529
*7099 FILLER_0_217_541
*7100 FILLER_0_217_55
*7101 FILLER_0_217_553
*7102 FILLER_0_217_559
*7103 FILLER_0_217_561
*7104 FILLER_0_217_57
*7105 FILLER_0_217_573
*7106 FILLER_0_217_585
*7107 FILLER_0_217_597
*7108 FILLER_0_217_609
*7109 FILLER_0_217_615
*7110 FILLER_0_217_617
*7111 FILLER_0_217_629
*7112 FILLER_0_217_641
*7113 FILLER_0_217_653
*7114 FILLER_0_217_665
*7115 FILLER_0_217_671
*7116 FILLER_0_217_673
*7117 FILLER_0_217_685
*7118 FILLER_0_217_69
*7119 FILLER_0_217_697
*7120 FILLER_0_217_709
*7121 FILLER_0_217_721
*7122 FILLER_0_217_727
*7123 FILLER_0_217_729
*7124 FILLER_0_217_741
*7125 FILLER_0_217_753
*7126 FILLER_0_217_765
*7127 FILLER_0_217_777
*7128 FILLER_0_217_783
*7129 FILLER_0_217_785
*7130 FILLER_0_217_797
*7131 FILLER_0_217_809
*7132 FILLER_0_217_81
*7133 FILLER_0_217_821
*7134 FILLER_0_217_833
*7135 FILLER_0_217_839
*7136 FILLER_0_217_841
*7137 FILLER_0_217_853
*7138 FILLER_0_217_865
*7139 FILLER_0_217_877
*7140 FILLER_0_217_889
*7141 FILLER_0_217_895
*7142 FILLER_0_217_897
*7143 FILLER_0_217_9
*7144 FILLER_0_217_909
*7145 FILLER_0_217_921
*7146 FILLER_0_217_93
*7147 FILLER_0_217_933
*7148 FILLER_0_217_945
*7149 FILLER_0_217_951
*7150 FILLER_0_217_953
*7151 FILLER_0_217_965
*7152 FILLER_0_217_977
*7153 FILLER_0_217_989
*7154 FILLER_0_218_1005
*7155 FILLER_0_218_1017
*7156 FILLER_0_218_1029
*7157 FILLER_0_218_1035
*7158 FILLER_0_218_1037
*7159 FILLER_0_218_1049
*7160 FILLER_0_218_1061
*7161 FILLER_0_218_1073
*7162 FILLER_0_218_1085
*7163 FILLER_0_218_109
*7164 FILLER_0_218_1091
*7165 FILLER_0_218_1093
*7166 FILLER_0_218_1105
*7167 FILLER_0_218_1117
*7168 FILLER_0_218_1129
*7169 FILLER_0_218_1141
*7170 FILLER_0_218_1147
*7171 FILLER_0_218_1149
*7172 FILLER_0_218_1161
*7173 FILLER_0_218_1173
*7174 FILLER_0_218_1185
*7175 FILLER_0_218_1197
*7176 FILLER_0_218_1203
*7177 FILLER_0_218_1205
*7178 FILLER_0_218_121
*7179 FILLER_0_218_1217
*7180 FILLER_0_218_1229
*7181 FILLER_0_218_1241
*7182 FILLER_0_218_1253
*7183 FILLER_0_218_1259
*7184 FILLER_0_218_1261
*7185 FILLER_0_218_1273
*7186 FILLER_0_218_1285
*7187 FILLER_0_218_1297
*7188 FILLER_0_218_1309
*7189 FILLER_0_218_1315
*7190 FILLER_0_218_1317
*7191 FILLER_0_218_1329
*7192 FILLER_0_218_133
*7193 FILLER_0_218_1341
*7194 FILLER_0_218_139
*7195 FILLER_0_218_141
*7196 FILLER_0_218_15
*7197 FILLER_0_218_153
*7198 FILLER_0_218_165
*7199 FILLER_0_218_177
*7200 FILLER_0_218_189
*7201 FILLER_0_218_195
*7202 FILLER_0_218_197
*7203 FILLER_0_218_209
*7204 FILLER_0_218_221
*7205 FILLER_0_218_233
*7206 FILLER_0_218_245
*7207 FILLER_0_218_251
*7208 FILLER_0_218_253
*7209 FILLER_0_218_265
*7210 FILLER_0_218_27
*7211 FILLER_0_218_277
*7212 FILLER_0_218_289
*7213 FILLER_0_218_29
*7214 FILLER_0_218_3
*7215 FILLER_0_218_301
*7216 FILLER_0_218_307
*7217 FILLER_0_218_309
*7218 FILLER_0_218_321
*7219 FILLER_0_218_333
*7220 FILLER_0_218_345
*7221 FILLER_0_218_357
*7222 FILLER_0_218_363
*7223 FILLER_0_218_365
*7224 FILLER_0_218_377
*7225 FILLER_0_218_389
*7226 FILLER_0_218_401
*7227 FILLER_0_218_41
*7228 FILLER_0_218_413
*7229 FILLER_0_218_419
*7230 FILLER_0_218_421
*7231 FILLER_0_218_433
*7232 FILLER_0_218_445
*7233 FILLER_0_218_457
*7234 FILLER_0_218_469
*7235 FILLER_0_218_475
*7236 FILLER_0_218_477
*7237 FILLER_0_218_489
*7238 FILLER_0_218_501
*7239 FILLER_0_218_513
*7240 FILLER_0_218_525
*7241 FILLER_0_218_53
*7242 FILLER_0_218_531
*7243 FILLER_0_218_533
*7244 FILLER_0_218_545
*7245 FILLER_0_218_557
*7246 FILLER_0_218_569
*7247 FILLER_0_218_581
*7248 FILLER_0_218_587
*7249 FILLER_0_218_589
*7250 FILLER_0_218_601
*7251 FILLER_0_218_613
*7252 FILLER_0_218_625
*7253 FILLER_0_218_637
*7254 FILLER_0_218_643
*7255 FILLER_0_218_645
*7256 FILLER_0_218_65
*7257 FILLER_0_218_657
*7258 FILLER_0_218_669
*7259 FILLER_0_218_681
*7260 FILLER_0_218_693
*7261 FILLER_0_218_699
*7262 FILLER_0_218_701
*7263 FILLER_0_218_713
*7264 FILLER_0_218_725
*7265 FILLER_0_218_737
*7266 FILLER_0_218_749
*7267 FILLER_0_218_755
*7268 FILLER_0_218_757
*7269 FILLER_0_218_769
*7270 FILLER_0_218_77
*7271 FILLER_0_218_781
*7272 FILLER_0_218_793
*7273 FILLER_0_218_805
*7274 FILLER_0_218_811
*7275 FILLER_0_218_813
*7276 FILLER_0_218_825
*7277 FILLER_0_218_83
*7278 FILLER_0_218_837
*7279 FILLER_0_218_849
*7280 FILLER_0_218_85
*7281 FILLER_0_218_861
*7282 FILLER_0_218_867
*7283 FILLER_0_218_869
*7284 FILLER_0_218_881
*7285 FILLER_0_218_893
*7286 FILLER_0_218_905
*7287 FILLER_0_218_917
*7288 FILLER_0_218_923
*7289 FILLER_0_218_925
*7290 FILLER_0_218_937
*7291 FILLER_0_218_949
*7292 FILLER_0_218_961
*7293 FILLER_0_218_97
*7294 FILLER_0_218_973
*7295 FILLER_0_218_979
*7296 FILLER_0_218_981
*7297 FILLER_0_218_993
*7298 FILLER_0_219_1001
*7299 FILLER_0_219_1007
*7300 FILLER_0_219_1009
*7301 FILLER_0_219_1021
*7302 FILLER_0_219_1033
*7303 FILLER_0_219_1045
*7304 FILLER_0_219_105
*7305 FILLER_0_219_1057
*7306 FILLER_0_219_1063
*7307 FILLER_0_219_1065
*7308 FILLER_0_219_1077
*7309 FILLER_0_219_1089
*7310 FILLER_0_219_1101
*7311 FILLER_0_219_111
*7312 FILLER_0_219_1113
*7313 FILLER_0_219_1119
*7314 FILLER_0_219_1121
*7315 FILLER_0_219_113
*7316 FILLER_0_219_1133
*7317 FILLER_0_219_1145
*7318 FILLER_0_219_1157
*7319 FILLER_0_219_1169
*7320 FILLER_0_219_1175
*7321 FILLER_0_219_1177
*7322 FILLER_0_219_1189
*7323 FILLER_0_219_1201
*7324 FILLER_0_219_1213
*7325 FILLER_0_219_1225
*7326 FILLER_0_219_1231
*7327 FILLER_0_219_1233
*7328 FILLER_0_219_1245
*7329 FILLER_0_219_125
*7330 FILLER_0_219_1257
*7331 FILLER_0_219_1269
*7332 FILLER_0_219_1281
*7333 FILLER_0_219_1287
*7334 FILLER_0_219_1289
*7335 FILLER_0_219_1301
*7336 FILLER_0_219_1313
*7337 FILLER_0_219_1325
*7338 FILLER_0_219_1337
*7339 FILLER_0_219_1343
*7340 FILLER_0_219_137
*7341 FILLER_0_219_149
*7342 FILLER_0_219_15
*7343 FILLER_0_219_161
*7344 FILLER_0_219_167
*7345 FILLER_0_219_169
*7346 FILLER_0_219_181
*7347 FILLER_0_219_193
*7348 FILLER_0_219_205
*7349 FILLER_0_219_217
*7350 FILLER_0_219_223
*7351 FILLER_0_219_225
*7352 FILLER_0_219_237
*7353 FILLER_0_219_249
*7354 FILLER_0_219_261
*7355 FILLER_0_219_27
*7356 FILLER_0_219_273
*7357 FILLER_0_219_279
*7358 FILLER_0_219_281
*7359 FILLER_0_219_293
*7360 FILLER_0_219_3
*7361 FILLER_0_219_305
*7362 FILLER_0_219_317
*7363 FILLER_0_219_329
*7364 FILLER_0_219_335
*7365 FILLER_0_219_337
*7366 FILLER_0_219_349
*7367 FILLER_0_219_361
*7368 FILLER_0_219_373
*7369 FILLER_0_219_385
*7370 FILLER_0_219_39
*7371 FILLER_0_219_391
*7372 FILLER_0_219_393
*7373 FILLER_0_219_405
*7374 FILLER_0_219_417
*7375 FILLER_0_219_429
*7376 FILLER_0_219_441
*7377 FILLER_0_219_447
*7378 FILLER_0_219_449
*7379 FILLER_0_219_461
*7380 FILLER_0_219_473
*7381 FILLER_0_219_485
*7382 FILLER_0_219_497
*7383 FILLER_0_219_503
*7384 FILLER_0_219_505
*7385 FILLER_0_219_51
*7386 FILLER_0_219_517
*7387 FILLER_0_219_529
*7388 FILLER_0_219_541
*7389 FILLER_0_219_55
*7390 FILLER_0_219_553
*7391 FILLER_0_219_559
*7392 FILLER_0_219_561
*7393 FILLER_0_219_57
*7394 FILLER_0_219_573
*7395 FILLER_0_219_585
*7396 FILLER_0_219_597
*7397 FILLER_0_219_609
*7398 FILLER_0_219_615
*7399 FILLER_0_219_617
*7400 FILLER_0_219_629
*7401 FILLER_0_219_641
*7402 FILLER_0_219_653
*7403 FILLER_0_219_665
*7404 FILLER_0_219_671
*7405 FILLER_0_219_673
*7406 FILLER_0_219_685
*7407 FILLER_0_219_69
*7408 FILLER_0_219_697
*7409 FILLER_0_219_709
*7410 FILLER_0_219_721
*7411 FILLER_0_219_727
*7412 FILLER_0_219_729
*7413 FILLER_0_219_741
*7414 FILLER_0_219_753
*7415 FILLER_0_219_765
*7416 FILLER_0_219_777
*7417 FILLER_0_219_783
*7418 FILLER_0_219_785
*7419 FILLER_0_219_797
*7420 FILLER_0_219_809
*7421 FILLER_0_219_81
*7422 FILLER_0_219_821
*7423 FILLER_0_219_833
*7424 FILLER_0_219_839
*7425 FILLER_0_219_841
*7426 FILLER_0_219_853
*7427 FILLER_0_219_865
*7428 FILLER_0_219_877
*7429 FILLER_0_219_889
*7430 FILLER_0_219_895
*7431 FILLER_0_219_897
*7432 FILLER_0_219_909
*7433 FILLER_0_219_921
*7434 FILLER_0_219_93
*7435 FILLER_0_219_933
*7436 FILLER_0_219_945
*7437 FILLER_0_219_951
*7438 FILLER_0_219_953
*7439 FILLER_0_219_965
*7440 FILLER_0_219_977
*7441 FILLER_0_219_989
*7442 FILLER_0_21_1201
*7443 FILLER_0_21_1213
*7444 FILLER_0_21_1225
*7445 FILLER_0_21_1237
*7446 FILLER_0_21_1249
*7447 FILLER_0_21_1253
*7448 FILLER_0_21_1255
*7449 FILLER_0_21_1267
*7450 FILLER_0_21_1279
*7451 FILLER_0_21_1291
*7452 FILLER_0_21_13
*7453 FILLER_0_21_1303
*7454 FILLER_0_21_1309
*7455 FILLER_0_21_1311
*7456 FILLER_0_21_1323
*7457 FILLER_0_21_1335
*7458 FILLER_0_21_1343
*7459 FILLER_0_21_25
*7460 FILLER_0_21_37
*7461 FILLER_0_21_45
*7462 FILLER_0_21_593
*7463 FILLER_0_21_605
*7464 FILLER_0_21_617
*7465 FILLER_0_21_629
*7466 FILLER_0_21_641
*7467 FILLER_0_21_645
*7468 FILLER_0_21_647
*7469 FILLER_0_21_655
*7470 FILLER_0_21_9
*7471 FILLER_0_220_1005
*7472 FILLER_0_220_1017
*7473 FILLER_0_220_1029
*7474 FILLER_0_220_1035
*7475 FILLER_0_220_1037
*7476 FILLER_0_220_1049
*7477 FILLER_0_220_1061
*7478 FILLER_0_220_1073
*7479 FILLER_0_220_1085
*7480 FILLER_0_220_109
*7481 FILLER_0_220_1091
*7482 FILLER_0_220_1093
*7483 FILLER_0_220_1105
*7484 FILLER_0_220_1117
*7485 FILLER_0_220_1129
*7486 FILLER_0_220_1141
*7487 FILLER_0_220_1147
*7488 FILLER_0_220_1149
*7489 FILLER_0_220_1161
*7490 FILLER_0_220_1173
*7491 FILLER_0_220_1185
*7492 FILLER_0_220_1197
*7493 FILLER_0_220_1203
*7494 FILLER_0_220_1205
*7495 FILLER_0_220_121
*7496 FILLER_0_220_1217
*7497 FILLER_0_220_1229
*7498 FILLER_0_220_1241
*7499 FILLER_0_220_1253
*7500 FILLER_0_220_1259
*7501 FILLER_0_220_1261
*7502 FILLER_0_220_1273
*7503 FILLER_0_220_1285
*7504 FILLER_0_220_1297
*7505 FILLER_0_220_13
*7506 FILLER_0_220_1309
*7507 FILLER_0_220_1315
*7508 FILLER_0_220_1317
*7509 FILLER_0_220_1329
*7510 FILLER_0_220_133
*7511 FILLER_0_220_1341
*7512 FILLER_0_220_139
*7513 FILLER_0_220_141
*7514 FILLER_0_220_153
*7515 FILLER_0_220_165
*7516 FILLER_0_220_177
*7517 FILLER_0_220_189
*7518 FILLER_0_220_195
*7519 FILLER_0_220_197
*7520 FILLER_0_220_209
*7521 FILLER_0_220_221
*7522 FILLER_0_220_233
*7523 FILLER_0_220_245
*7524 FILLER_0_220_25
*7525 FILLER_0_220_251
*7526 FILLER_0_220_253
*7527 FILLER_0_220_265
*7528 FILLER_0_220_277
*7529 FILLER_0_220_289
*7530 FILLER_0_220_29
*7531 FILLER_0_220_301
*7532 FILLER_0_220_307
*7533 FILLER_0_220_309
*7534 FILLER_0_220_321
*7535 FILLER_0_220_333
*7536 FILLER_0_220_345
*7537 FILLER_0_220_357
*7538 FILLER_0_220_363
*7539 FILLER_0_220_365
*7540 FILLER_0_220_377
*7541 FILLER_0_220_389
*7542 FILLER_0_220_401
*7543 FILLER_0_220_41
*7544 FILLER_0_220_413
*7545 FILLER_0_220_419
*7546 FILLER_0_220_421
*7547 FILLER_0_220_433
*7548 FILLER_0_220_445
*7549 FILLER_0_220_457
*7550 FILLER_0_220_469
*7551 FILLER_0_220_475
*7552 FILLER_0_220_477
*7553 FILLER_0_220_489
*7554 FILLER_0_220_501
*7555 FILLER_0_220_513
*7556 FILLER_0_220_525
*7557 FILLER_0_220_53
*7558 FILLER_0_220_531
*7559 FILLER_0_220_533
*7560 FILLER_0_220_545
*7561 FILLER_0_220_557
*7562 FILLER_0_220_569
*7563 FILLER_0_220_581
*7564 FILLER_0_220_587
*7565 FILLER_0_220_589
*7566 FILLER_0_220_601
*7567 FILLER_0_220_613
*7568 FILLER_0_220_625
*7569 FILLER_0_220_637
*7570 FILLER_0_220_643
*7571 FILLER_0_220_645
*7572 FILLER_0_220_65
*7573 FILLER_0_220_657
*7574 FILLER_0_220_669
*7575 FILLER_0_220_681
*7576 FILLER_0_220_693
*7577 FILLER_0_220_699
*7578 FILLER_0_220_701
*7579 FILLER_0_220_713
*7580 FILLER_0_220_725
*7581 FILLER_0_220_737
*7582 FILLER_0_220_749
*7583 FILLER_0_220_755
*7584 FILLER_0_220_757
*7585 FILLER_0_220_769
*7586 FILLER_0_220_77
*7587 FILLER_0_220_781
*7588 FILLER_0_220_793
*7589 FILLER_0_220_805
*7590 FILLER_0_220_811
*7591 FILLER_0_220_813
*7592 FILLER_0_220_825
*7593 FILLER_0_220_83
*7594 FILLER_0_220_837
*7595 FILLER_0_220_849
*7596 FILLER_0_220_85
*7597 FILLER_0_220_861
*7598 FILLER_0_220_867
*7599 FILLER_0_220_869
*7600 FILLER_0_220_881
*7601 FILLER_0_220_893
*7602 FILLER_0_220_9
*7603 FILLER_0_220_905
*7604 FILLER_0_220_917
*7605 FILLER_0_220_923
*7606 FILLER_0_220_925
*7607 FILLER_0_220_937
*7608 FILLER_0_220_949
*7609 FILLER_0_220_961
*7610 FILLER_0_220_97
*7611 FILLER_0_220_973
*7612 FILLER_0_220_979
*7613 FILLER_0_220_981
*7614 FILLER_0_220_993
*7615 FILLER_0_221_1001
*7616 FILLER_0_221_1007
*7617 FILLER_0_221_1009
*7618 FILLER_0_221_1021
*7619 FILLER_0_221_1033
*7620 FILLER_0_221_1045
*7621 FILLER_0_221_105
*7622 FILLER_0_221_1057
*7623 FILLER_0_221_1063
*7624 FILLER_0_221_1065
*7625 FILLER_0_221_1077
*7626 FILLER_0_221_1089
*7627 FILLER_0_221_1101
*7628 FILLER_0_221_111
*7629 FILLER_0_221_1113
*7630 FILLER_0_221_1119
*7631 FILLER_0_221_1121
*7632 FILLER_0_221_113
*7633 FILLER_0_221_1133
*7634 FILLER_0_221_1145
*7635 FILLER_0_221_1157
*7636 FILLER_0_221_1169
*7637 FILLER_0_221_1175
*7638 FILLER_0_221_1177
*7639 FILLER_0_221_1189
*7640 FILLER_0_221_1201
*7641 FILLER_0_221_1213
*7642 FILLER_0_221_1225
*7643 FILLER_0_221_1231
*7644 FILLER_0_221_1233
*7645 FILLER_0_221_1245
*7646 FILLER_0_221_125
*7647 FILLER_0_221_1257
*7648 FILLER_0_221_1269
*7649 FILLER_0_221_1281
*7650 FILLER_0_221_1287
*7651 FILLER_0_221_1289
*7652 FILLER_0_221_1301
*7653 FILLER_0_221_1313
*7654 FILLER_0_221_1325
*7655 FILLER_0_221_137
*7656 FILLER_0_221_149
*7657 FILLER_0_221_15
*7658 FILLER_0_221_161
*7659 FILLER_0_221_167
*7660 FILLER_0_221_169
*7661 FILLER_0_221_181
*7662 FILLER_0_221_193
*7663 FILLER_0_221_205
*7664 FILLER_0_221_217
*7665 FILLER_0_221_223
*7666 FILLER_0_221_225
*7667 FILLER_0_221_237
*7668 FILLER_0_221_249
*7669 FILLER_0_221_261
*7670 FILLER_0_221_27
*7671 FILLER_0_221_273
*7672 FILLER_0_221_279
*7673 FILLER_0_221_281
*7674 FILLER_0_221_293
*7675 FILLER_0_221_3
*7676 FILLER_0_221_305
*7677 FILLER_0_221_317
*7678 FILLER_0_221_329
*7679 FILLER_0_221_335
*7680 FILLER_0_221_337
*7681 FILLER_0_221_349
*7682 FILLER_0_221_361
*7683 FILLER_0_221_373
*7684 FILLER_0_221_385
*7685 FILLER_0_221_39
*7686 FILLER_0_221_391
*7687 FILLER_0_221_393
*7688 FILLER_0_221_405
*7689 FILLER_0_221_417
*7690 FILLER_0_221_429
*7691 FILLER_0_221_441
*7692 FILLER_0_221_447
*7693 FILLER_0_221_449
*7694 FILLER_0_221_461
*7695 FILLER_0_221_473
*7696 FILLER_0_221_485
*7697 FILLER_0_221_497
*7698 FILLER_0_221_503
*7699 FILLER_0_221_505
*7700 FILLER_0_221_51
*7701 FILLER_0_221_517
*7702 FILLER_0_221_529
*7703 FILLER_0_221_541
*7704 FILLER_0_221_55
*7705 FILLER_0_221_553
*7706 FILLER_0_221_559
*7707 FILLER_0_221_561
*7708 FILLER_0_221_57
*7709 FILLER_0_221_573
*7710 FILLER_0_221_585
*7711 FILLER_0_221_597
*7712 FILLER_0_221_609
*7713 FILLER_0_221_615
*7714 FILLER_0_221_617
*7715 FILLER_0_221_629
*7716 FILLER_0_221_641
*7717 FILLER_0_221_653
*7718 FILLER_0_221_665
*7719 FILLER_0_221_671
*7720 FILLER_0_221_673
*7721 FILLER_0_221_685
*7722 FILLER_0_221_69
*7723 FILLER_0_221_697
*7724 FILLER_0_221_709
*7725 FILLER_0_221_721
*7726 FILLER_0_221_727
*7727 FILLER_0_221_729
*7728 FILLER_0_221_741
*7729 FILLER_0_221_753
*7730 FILLER_0_221_765
*7731 FILLER_0_221_777
*7732 FILLER_0_221_783
*7733 FILLER_0_221_785
*7734 FILLER_0_221_797
*7735 FILLER_0_221_809
*7736 FILLER_0_221_81
*7737 FILLER_0_221_821
*7738 FILLER_0_221_833
*7739 FILLER_0_221_839
*7740 FILLER_0_221_841
*7741 FILLER_0_221_853
*7742 FILLER_0_221_865
*7743 FILLER_0_221_877
*7744 FILLER_0_221_889
*7745 FILLER_0_221_895
*7746 FILLER_0_221_897
*7747 FILLER_0_221_909
*7748 FILLER_0_221_921
*7749 FILLER_0_221_93
*7750 FILLER_0_221_933
*7751 FILLER_0_221_945
*7752 FILLER_0_221_951
*7753 FILLER_0_221_953
*7754 FILLER_0_221_965
*7755 FILLER_0_221_977
*7756 FILLER_0_221_989
*7757 FILLER_0_222_1005
*7758 FILLER_0_222_1017
*7759 FILLER_0_222_1029
*7760 FILLER_0_222_1035
*7761 FILLER_0_222_1037
*7762 FILLER_0_222_1049
*7763 FILLER_0_222_1061
*7764 FILLER_0_222_1073
*7765 FILLER_0_222_1085
*7766 FILLER_0_222_109
*7767 FILLER_0_222_1091
*7768 FILLER_0_222_1093
*7769 FILLER_0_222_1105
*7770 FILLER_0_222_1117
*7771 FILLER_0_222_1129
*7772 FILLER_0_222_1141
*7773 FILLER_0_222_1147
*7774 FILLER_0_222_1149
*7775 FILLER_0_222_1161
*7776 FILLER_0_222_1173
*7777 FILLER_0_222_1185
*7778 FILLER_0_222_1197
*7779 FILLER_0_222_1203
*7780 FILLER_0_222_1205
*7781 FILLER_0_222_121
*7782 FILLER_0_222_1217
*7783 FILLER_0_222_1229
*7784 FILLER_0_222_1241
*7785 FILLER_0_222_1253
*7786 FILLER_0_222_1259
*7787 FILLER_0_222_1261
*7788 FILLER_0_222_1273
*7789 FILLER_0_222_1285
*7790 FILLER_0_222_1297
*7791 FILLER_0_222_1309
*7792 FILLER_0_222_1315
*7793 FILLER_0_222_1317
*7794 FILLER_0_222_1329
*7795 FILLER_0_222_133
*7796 FILLER_0_222_1341
*7797 FILLER_0_222_139
*7798 FILLER_0_222_141
*7799 FILLER_0_222_15
*7800 FILLER_0_222_153
*7801 FILLER_0_222_165
*7802 FILLER_0_222_177
*7803 FILLER_0_222_189
*7804 FILLER_0_222_195
*7805 FILLER_0_222_197
*7806 FILLER_0_222_209
*7807 FILLER_0_222_221
*7808 FILLER_0_222_233
*7809 FILLER_0_222_245
*7810 FILLER_0_222_251
*7811 FILLER_0_222_253
*7812 FILLER_0_222_265
*7813 FILLER_0_222_27
*7814 FILLER_0_222_277
*7815 FILLER_0_222_289
*7816 FILLER_0_222_29
*7817 FILLER_0_222_3
*7818 FILLER_0_222_301
*7819 FILLER_0_222_307
*7820 FILLER_0_222_309
*7821 FILLER_0_222_321
*7822 FILLER_0_222_333
*7823 FILLER_0_222_345
*7824 FILLER_0_222_357
*7825 FILLER_0_222_363
*7826 FILLER_0_222_365
*7827 FILLER_0_222_377
*7828 FILLER_0_222_389
*7829 FILLER_0_222_401
*7830 FILLER_0_222_41
*7831 FILLER_0_222_413
*7832 FILLER_0_222_419
*7833 FILLER_0_222_421
*7834 FILLER_0_222_433
*7835 FILLER_0_222_445
*7836 FILLER_0_222_457
*7837 FILLER_0_222_469
*7838 FILLER_0_222_475
*7839 FILLER_0_222_477
*7840 FILLER_0_222_489
*7841 FILLER_0_222_501
*7842 FILLER_0_222_513
*7843 FILLER_0_222_525
*7844 FILLER_0_222_53
*7845 FILLER_0_222_531
*7846 FILLER_0_222_533
*7847 FILLER_0_222_545
*7848 FILLER_0_222_557
*7849 FILLER_0_222_569
*7850 FILLER_0_222_581
*7851 FILLER_0_222_587
*7852 FILLER_0_222_589
*7853 FILLER_0_222_601
*7854 FILLER_0_222_613
*7855 FILLER_0_222_625
*7856 FILLER_0_222_637
*7857 FILLER_0_222_643
*7858 FILLER_0_222_645
*7859 FILLER_0_222_65
*7860 FILLER_0_222_657
*7861 FILLER_0_222_669
*7862 FILLER_0_222_681
*7863 FILLER_0_222_693
*7864 FILLER_0_222_699
*7865 FILLER_0_222_701
*7866 FILLER_0_222_713
*7867 FILLER_0_222_725
*7868 FILLER_0_222_737
*7869 FILLER_0_222_749
*7870 FILLER_0_222_755
*7871 FILLER_0_222_757
*7872 FILLER_0_222_769
*7873 FILLER_0_222_77
*7874 FILLER_0_222_781
*7875 FILLER_0_222_793
*7876 FILLER_0_222_805
*7877 FILLER_0_222_811
*7878 FILLER_0_222_813
*7879 FILLER_0_222_825
*7880 FILLER_0_222_83
*7881 FILLER_0_222_837
*7882 FILLER_0_222_849
*7883 FILLER_0_222_85
*7884 FILLER_0_222_861
*7885 FILLER_0_222_867
*7886 FILLER_0_222_869
*7887 FILLER_0_222_881
*7888 FILLER_0_222_893
*7889 FILLER_0_222_905
*7890 FILLER_0_222_917
*7891 FILLER_0_222_923
*7892 FILLER_0_222_925
*7893 FILLER_0_222_937
*7894 FILLER_0_222_949
*7895 FILLER_0_222_961
*7896 FILLER_0_222_97
*7897 FILLER_0_222_973
*7898 FILLER_0_222_979
*7899 FILLER_0_222_981
*7900 FILLER_0_222_993
*7901 FILLER_0_223_1001
*7902 FILLER_0_223_1007
*7903 FILLER_0_223_1009
*7904 FILLER_0_223_1021
*7905 FILLER_0_223_1033
*7906 FILLER_0_223_1045
*7907 FILLER_0_223_105
*7908 FILLER_0_223_1057
*7909 FILLER_0_223_1063
*7910 FILLER_0_223_1065
*7911 FILLER_0_223_1077
*7912 FILLER_0_223_1089
*7913 FILLER_0_223_1101
*7914 FILLER_0_223_111
*7915 FILLER_0_223_1113
*7916 FILLER_0_223_1119
*7917 FILLER_0_223_1121
*7918 FILLER_0_223_113
*7919 FILLER_0_223_1133
*7920 FILLER_0_223_1145
*7921 FILLER_0_223_1157
*7922 FILLER_0_223_1169
*7923 FILLER_0_223_1175
*7924 FILLER_0_223_1177
*7925 FILLER_0_223_1189
*7926 FILLER_0_223_1201
*7927 FILLER_0_223_1213
*7928 FILLER_0_223_1225
*7929 FILLER_0_223_1231
*7930 FILLER_0_223_1233
*7931 FILLER_0_223_1245
*7932 FILLER_0_223_125
*7933 FILLER_0_223_1257
*7934 FILLER_0_223_1269
*7935 FILLER_0_223_1281
*7936 FILLER_0_223_1287
*7937 FILLER_0_223_1289
*7938 FILLER_0_223_1301
*7939 FILLER_0_223_1313
*7940 FILLER_0_223_1325
*7941 FILLER_0_223_1337
*7942 FILLER_0_223_1343
*7943 FILLER_0_223_137
*7944 FILLER_0_223_149
*7945 FILLER_0_223_15
*7946 FILLER_0_223_161
*7947 FILLER_0_223_167
*7948 FILLER_0_223_169
*7949 FILLER_0_223_181
*7950 FILLER_0_223_193
*7951 FILLER_0_223_205
*7952 FILLER_0_223_217
*7953 FILLER_0_223_223
*7954 FILLER_0_223_225
*7955 FILLER_0_223_237
*7956 FILLER_0_223_249
*7957 FILLER_0_223_261
*7958 FILLER_0_223_27
*7959 FILLER_0_223_273
*7960 FILLER_0_223_279
*7961 FILLER_0_223_281
*7962 FILLER_0_223_293
*7963 FILLER_0_223_3
*7964 FILLER_0_223_305
*7965 FILLER_0_223_317
*7966 FILLER_0_223_329
*7967 FILLER_0_223_335
*7968 FILLER_0_223_337
*7969 FILLER_0_223_349
*7970 FILLER_0_223_361
*7971 FILLER_0_223_373
*7972 FILLER_0_223_385
*7973 FILLER_0_223_39
*7974 FILLER_0_223_391
*7975 FILLER_0_223_393
*7976 FILLER_0_223_405
*7977 FILLER_0_223_417
*7978 FILLER_0_223_429
*7979 FILLER_0_223_441
*7980 FILLER_0_223_447
*7981 FILLER_0_223_449
*7982 FILLER_0_223_461
*7983 FILLER_0_223_473
*7984 FILLER_0_223_485
*7985 FILLER_0_223_497
*7986 FILLER_0_223_503
*7987 FILLER_0_223_505
*7988 FILLER_0_223_51
*7989 FILLER_0_223_517
*7990 FILLER_0_223_529
*7991 FILLER_0_223_541
*7992 FILLER_0_223_55
*7993 FILLER_0_223_553
*7994 FILLER_0_223_559
*7995 FILLER_0_223_561
*7996 FILLER_0_223_57
*7997 FILLER_0_223_573
*7998 FILLER_0_223_585
*7999 FILLER_0_223_597
*8000 FILLER_0_223_609
*8001 FILLER_0_223_615
*8002 FILLER_0_223_617
*8003 FILLER_0_223_629
*8004 FILLER_0_223_641
*8005 FILLER_0_223_653
*8006 FILLER_0_223_665
*8007 FILLER_0_223_671
*8008 FILLER_0_223_673
*8009 FILLER_0_223_685
*8010 FILLER_0_223_69
*8011 FILLER_0_223_697
*8012 FILLER_0_223_709
*8013 FILLER_0_223_721
*8014 FILLER_0_223_727
*8015 FILLER_0_223_729
*8016 FILLER_0_223_741
*8017 FILLER_0_223_753
*8018 FILLER_0_223_765
*8019 FILLER_0_223_777
*8020 FILLER_0_223_783
*8021 FILLER_0_223_785
*8022 FILLER_0_223_797
*8023 FILLER_0_223_809
*8024 FILLER_0_223_81
*8025 FILLER_0_223_821
*8026 FILLER_0_223_833
*8027 FILLER_0_223_839
*8028 FILLER_0_223_841
*8029 FILLER_0_223_853
*8030 FILLER_0_223_865
*8031 FILLER_0_223_877
*8032 FILLER_0_223_889
*8033 FILLER_0_223_895
*8034 FILLER_0_223_897
*8035 FILLER_0_223_909
*8036 FILLER_0_223_921
*8037 FILLER_0_223_93
*8038 FILLER_0_223_933
*8039 FILLER_0_223_945
*8040 FILLER_0_223_951
*8041 FILLER_0_223_953
*8042 FILLER_0_223_965
*8043 FILLER_0_223_977
*8044 FILLER_0_223_989
*8045 FILLER_0_224_1005
*8046 FILLER_0_224_1017
*8047 FILLER_0_224_1029
*8048 FILLER_0_224_1035
*8049 FILLER_0_224_1037
*8050 FILLER_0_224_1049
*8051 FILLER_0_224_1061
*8052 FILLER_0_224_1073
*8053 FILLER_0_224_1085
*8054 FILLER_0_224_109
*8055 FILLER_0_224_1091
*8056 FILLER_0_224_1093
*8057 FILLER_0_224_1105
*8058 FILLER_0_224_1117
*8059 FILLER_0_224_1129
*8060 FILLER_0_224_1141
*8061 FILLER_0_224_1147
*8062 FILLER_0_224_1149
*8063 FILLER_0_224_1161
*8064 FILLER_0_224_1173
*8065 FILLER_0_224_1185
*8066 FILLER_0_224_1197
*8067 FILLER_0_224_1203
*8068 FILLER_0_224_1205
*8069 FILLER_0_224_121
*8070 FILLER_0_224_1217
*8071 FILLER_0_224_1229
*8072 FILLER_0_224_1241
*8073 FILLER_0_224_1253
*8074 FILLER_0_224_1259
*8075 FILLER_0_224_1261
*8076 FILLER_0_224_1273
*8077 FILLER_0_224_1285
*8078 FILLER_0_224_1297
*8079 FILLER_0_224_13
*8080 FILLER_0_224_1309
*8081 FILLER_0_224_1315
*8082 FILLER_0_224_1317
*8083 FILLER_0_224_1329
*8084 FILLER_0_224_133
*8085 FILLER_0_224_1341
*8086 FILLER_0_224_139
*8087 FILLER_0_224_141
*8088 FILLER_0_224_153
*8089 FILLER_0_224_165
*8090 FILLER_0_224_177
*8091 FILLER_0_224_189
*8092 FILLER_0_224_195
*8093 FILLER_0_224_197
*8094 FILLER_0_224_209
*8095 FILLER_0_224_221
*8096 FILLER_0_224_233
*8097 FILLER_0_224_245
*8098 FILLER_0_224_25
*8099 FILLER_0_224_251
*8100 FILLER_0_224_253
*8101 FILLER_0_224_265
*8102 FILLER_0_224_277
*8103 FILLER_0_224_289
*8104 FILLER_0_224_29
*8105 FILLER_0_224_301
*8106 FILLER_0_224_307
*8107 FILLER_0_224_309
*8108 FILLER_0_224_321
*8109 FILLER_0_224_333
*8110 FILLER_0_224_345
*8111 FILLER_0_224_357
*8112 FILLER_0_224_363
*8113 FILLER_0_224_365
*8114 FILLER_0_224_377
*8115 FILLER_0_224_389
*8116 FILLER_0_224_401
*8117 FILLER_0_224_41
*8118 FILLER_0_224_413
*8119 FILLER_0_224_419
*8120 FILLER_0_224_421
*8121 FILLER_0_224_433
*8122 FILLER_0_224_445
*8123 FILLER_0_224_457
*8124 FILLER_0_224_469
*8125 FILLER_0_224_475
*8126 FILLER_0_224_477
*8127 FILLER_0_224_489
*8128 FILLER_0_224_501
*8129 FILLER_0_224_513
*8130 FILLER_0_224_525
*8131 FILLER_0_224_53
*8132 FILLER_0_224_531
*8133 FILLER_0_224_533
*8134 FILLER_0_224_545
*8135 FILLER_0_224_557
*8136 FILLER_0_224_569
*8137 FILLER_0_224_581
*8138 FILLER_0_224_587
*8139 FILLER_0_224_589
*8140 FILLER_0_224_601
*8141 FILLER_0_224_613
*8142 FILLER_0_224_625
*8143 FILLER_0_224_637
*8144 FILLER_0_224_643
*8145 FILLER_0_224_645
*8146 FILLER_0_224_65
*8147 FILLER_0_224_657
*8148 FILLER_0_224_669
*8149 FILLER_0_224_681
*8150 FILLER_0_224_693
*8151 FILLER_0_224_699
*8152 FILLER_0_224_701
*8153 FILLER_0_224_713
*8154 FILLER_0_224_725
*8155 FILLER_0_224_737
*8156 FILLER_0_224_749
*8157 FILLER_0_224_755
*8158 FILLER_0_224_757
*8159 FILLER_0_224_769
*8160 FILLER_0_224_77
*8161 FILLER_0_224_781
*8162 FILLER_0_224_793
*8163 FILLER_0_224_805
*8164 FILLER_0_224_811
*8165 FILLER_0_224_813
*8166 FILLER_0_224_825
*8167 FILLER_0_224_83
*8168 FILLER_0_224_837
*8169 FILLER_0_224_849
*8170 FILLER_0_224_85
*8171 FILLER_0_224_861
*8172 FILLER_0_224_867
*8173 FILLER_0_224_869
*8174 FILLER_0_224_881
*8175 FILLER_0_224_893
*8176 FILLER_0_224_9
*8177 FILLER_0_224_905
*8178 FILLER_0_224_917
*8179 FILLER_0_224_923
*8180 FILLER_0_224_925
*8181 FILLER_0_224_937
*8182 FILLER_0_224_949
*8183 FILLER_0_224_961
*8184 FILLER_0_224_97
*8185 FILLER_0_224_973
*8186 FILLER_0_224_979
*8187 FILLER_0_224_981
*8188 FILLER_0_224_993
*8189 FILLER_0_225_10
*8190 FILLER_0_225_1001
*8191 FILLER_0_225_1007
*8192 FILLER_0_225_1009
*8193 FILLER_0_225_1021
*8194 FILLER_0_225_1033
*8195 FILLER_0_225_1045
*8196 FILLER_0_225_105
*8197 FILLER_0_225_1057
*8198 FILLER_0_225_1063
*8199 FILLER_0_225_1065
*8200 FILLER_0_225_1077
*8201 FILLER_0_225_1089
*8202 FILLER_0_225_1101
*8203 FILLER_0_225_111
*8204 FILLER_0_225_1113
*8205 FILLER_0_225_1119
*8206 FILLER_0_225_1121
*8207 FILLER_0_225_113
*8208 FILLER_0_225_1133
*8209 FILLER_0_225_1145
*8210 FILLER_0_225_1157
*8211 FILLER_0_225_1169
*8212 FILLER_0_225_1175
*8213 FILLER_0_225_1177
*8214 FILLER_0_225_1189
*8215 FILLER_0_225_1201
*8216 FILLER_0_225_1213
*8217 FILLER_0_225_1225
*8218 FILLER_0_225_1231
*8219 FILLER_0_225_1233
*8220 FILLER_0_225_1245
*8221 FILLER_0_225_125
*8222 FILLER_0_225_1257
*8223 FILLER_0_225_1269
*8224 FILLER_0_225_1281
*8225 FILLER_0_225_1287
*8226 FILLER_0_225_1289
*8227 FILLER_0_225_1301
*8228 FILLER_0_225_1313
*8229 FILLER_0_225_1325
*8230 FILLER_0_225_1337
*8231 FILLER_0_225_137
*8232 FILLER_0_225_149
*8233 FILLER_0_225_161
*8234 FILLER_0_225_167
*8235 FILLER_0_225_169
*8236 FILLER_0_225_181
*8237 FILLER_0_225_193
*8238 FILLER_0_225_205
*8239 FILLER_0_225_217
*8240 FILLER_0_225_22
*8241 FILLER_0_225_223
*8242 FILLER_0_225_225
*8243 FILLER_0_225_237
*8244 FILLER_0_225_249
*8245 FILLER_0_225_261
*8246 FILLER_0_225_273
*8247 FILLER_0_225_279
*8248 FILLER_0_225_281
*8249 FILLER_0_225_293
*8250 FILLER_0_225_305
*8251 FILLER_0_225_317
*8252 FILLER_0_225_329
*8253 FILLER_0_225_335
*8254 FILLER_0_225_337
*8255 FILLER_0_225_34
*8256 FILLER_0_225_349
*8257 FILLER_0_225_361
*8258 FILLER_0_225_373
*8259 FILLER_0_225_385
*8260 FILLER_0_225_391
*8261 FILLER_0_225_393
*8262 FILLER_0_225_405
*8263 FILLER_0_225_417
*8264 FILLER_0_225_429
*8265 FILLER_0_225_441
*8266 FILLER_0_225_447
*8267 FILLER_0_225_449
*8268 FILLER_0_225_46
*8269 FILLER_0_225_461
*8270 FILLER_0_225_473
*8271 FILLER_0_225_485
*8272 FILLER_0_225_497
*8273 FILLER_0_225_503
*8274 FILLER_0_225_505
*8275 FILLER_0_225_517
*8276 FILLER_0_225_529
*8277 FILLER_0_225_54
*8278 FILLER_0_225_541
*8279 FILLER_0_225_553
*8280 FILLER_0_225_559
*8281 FILLER_0_225_561
*8282 FILLER_0_225_57
*8283 FILLER_0_225_573
*8284 FILLER_0_225_585
*8285 FILLER_0_225_597
*8286 FILLER_0_225_6
*8287 FILLER_0_225_609
*8288 FILLER_0_225_615
*8289 FILLER_0_225_617
*8290 FILLER_0_225_629
*8291 FILLER_0_225_641
*8292 FILLER_0_225_653
*8293 FILLER_0_225_665
*8294 FILLER_0_225_671
*8295 FILLER_0_225_673
*8296 FILLER_0_225_685
*8297 FILLER_0_225_69
*8298 FILLER_0_225_697
*8299 FILLER_0_225_709
*8300 FILLER_0_225_721
*8301 FILLER_0_225_727
*8302 FILLER_0_225_729
*8303 FILLER_0_225_741
*8304 FILLER_0_225_753
*8305 FILLER_0_225_765
*8306 FILLER_0_225_777
*8307 FILLER_0_225_783
*8308 FILLER_0_225_785
*8309 FILLER_0_225_797
*8310 FILLER_0_225_809
*8311 FILLER_0_225_81
*8312 FILLER_0_225_821
*8313 FILLER_0_225_833
*8314 FILLER_0_225_839
*8315 FILLER_0_225_841
*8316 FILLER_0_225_853
*8317 FILLER_0_225_865
*8318 FILLER_0_225_877
*8319 FILLER_0_225_889
*8320 FILLER_0_225_895
*8321 FILLER_0_225_897
*8322 FILLER_0_225_909
*8323 FILLER_0_225_921
*8324 FILLER_0_225_93
*8325 FILLER_0_225_933
*8326 FILLER_0_225_945
*8327 FILLER_0_225_951
*8328 FILLER_0_225_953
*8329 FILLER_0_225_965
*8330 FILLER_0_225_977
*8331 FILLER_0_225_989
*8332 FILLER_0_226_1009
*8333 FILLER_0_226_1018
*8334 FILLER_0_226_1030
*8335 FILLER_0_226_1040
*8336 FILLER_0_226_1044
*8337 FILLER_0_226_1056
*8338 FILLER_0_226_106
*8339 FILLER_0_226_1062
*8340 FILLER_0_226_1065
*8341 FILLER_0_226_1077
*8342 FILLER_0_226_1084
*8343 FILLER_0_226_1093
*8344 FILLER_0_226_1106
*8345 FILLER_0_226_1118
*8346 FILLER_0_226_1131
*8347 FILLER_0_226_1135
*8348 FILLER_0_226_1143
*8349 FILLER_0_226_1159
*8350 FILLER_0_226_116
*8351 FILLER_0_226_1172
*8352 FILLER_0_226_1177
*8353 FILLER_0_226_1183
*8354 FILLER_0_226_1194
*8355 FILLER_0_226_1198
*8356 FILLER_0_226_12
*8357 FILLER_0_226_120
*8358 FILLER_0_226_1205
*8359 FILLER_0_226_1216
*8360 FILLER_0_226_1220
*8361 FILLER_0_226_1243
*8362 FILLER_0_226_1247
*8363 FILLER_0_226_1255
*8364 FILLER_0_226_1271
*8365 FILLER_0_226_1277
*8366 FILLER_0_226_1289
*8367 FILLER_0_226_1293
*8368 FILLER_0_226_1305
*8369 FILLER_0_226_1313
*8370 FILLER_0_226_1317
*8371 FILLER_0_226_132
*8372 FILLER_0_226_1327
*8373 FILLER_0_226_1335
*8374 FILLER_0_226_138
*8375 FILLER_0_226_141
*8376 FILLER_0_226_153
*8377 FILLER_0_226_16
*8378 FILLER_0_226_160
*8379 FILLER_0_226_169
*8380 FILLER_0_226_182
*8381 FILLER_0_226_194
*8382 FILLER_0_226_197
*8383 FILLER_0_226_20
*8384 FILLER_0_226_204
*8385 FILLER_0_226_216
*8386 FILLER_0_226_228
*8387 FILLER_0_226_232
*8388 FILLER_0_226_240
*8389 FILLER_0_226_248
*8390 FILLER_0_226_253
*8391 FILLER_0_226_270
*8392 FILLER_0_226_278
*8393 FILLER_0_226_281
*8394 FILLER_0_226_29
*8395 FILLER_0_226_292
*8396 FILLER_0_226_304
*8397 FILLER_0_226_309
*8398 FILLER_0_226_314
*8399 FILLER_0_226_318
*8400 FILLER_0_226_330
*8401 FILLER_0_226_337
*8402 FILLER_0_226_349
*8403 FILLER_0_226_358
*8404 FILLER_0_226_365
*8405 FILLER_0_226_373
*8406 FILLER_0_226_380
*8407 FILLER_0_226_393
*8408 FILLER_0_226_402
*8409 FILLER_0_226_41
*8410 FILLER_0_226_414
*8411 FILLER_0_226_424
*8412 FILLER_0_226_428
*8413 FILLER_0_226_440
*8414 FILLER_0_226_446
*8415 FILLER_0_226_449
*8416 FILLER_0_226_461
*8417 FILLER_0_226_468
*8418 FILLER_0_226_477
*8419 FILLER_0_226_490
*8420 FILLER_0_226_50
*8421 FILLER_0_226_502
*8422 FILLER_0_226_505
*8423 FILLER_0_226_512
*8424 FILLER_0_226_524
*8425 FILLER_0_226_536
*8426 FILLER_0_226_540
*8427 FILLER_0_226_548
*8428 FILLER_0_226_556
*8429 FILLER_0_226_561
*8430 FILLER_0_226_57
*8431 FILLER_0_226_578
*8432 FILLER_0_226_586
*8433 FILLER_0_226_589
*8434 FILLER_0_226_600
*8435 FILLER_0_226_612
*8436 FILLER_0_226_617
*8437 FILLER_0_226_622
*8438 FILLER_0_226_626
*8439 FILLER_0_226_638
*8440 FILLER_0_226_645
*8441 FILLER_0_226_65
*8442 FILLER_0_226_657
*8443 FILLER_0_226_666
*8444 FILLER_0_226_673
*8445 FILLER_0_226_681
*8446 FILLER_0_226_688
*8447 FILLER_0_226_701
*8448 FILLER_0_226_710
*8449 FILLER_0_226_72
*8450 FILLER_0_226_722
*8451 FILLER_0_226_732
*8452 FILLER_0_226_736
*8453 FILLER_0_226_748
*8454 FILLER_0_226_754
*8455 FILLER_0_226_757
*8456 FILLER_0_226_769
*8457 FILLER_0_226_776
*8458 FILLER_0_226_785
*8459 FILLER_0_226_798
*8460 FILLER_0_226_810
*8461 FILLER_0_226_813
*8462 FILLER_0_226_820
*8463 FILLER_0_226_832
*8464 FILLER_0_226_844
*8465 FILLER_0_226_848
*8466 FILLER_0_226_85
*8467 FILLER_0_226_856
*8468 FILLER_0_226_864
*8469 FILLER_0_226_869
*8470 FILLER_0_226_886
*8471 FILLER_0_226_894
*8472 FILLER_0_226_897
*8473 FILLER_0_226_908
*8474 FILLER_0_226_920
*8475 FILLER_0_226_925
*8476 FILLER_0_226_930
*8477 FILLER_0_226_934
*8478 FILLER_0_226_94
*8479 FILLER_0_226_946
*8480 FILLER_0_226_953
*8481 FILLER_0_226_965
*8482 FILLER_0_226_974
*8483 FILLER_0_226_981
*8484 FILLER_0_226_989
*8485 FILLER_0_226_996
*8486 FILLER_0_22_1201
*8487 FILLER_0_22_1213
*8488 FILLER_0_22_1225
*8489 FILLER_0_22_1227
*8490 FILLER_0_22_1239
*8491 FILLER_0_22_1251
*8492 FILLER_0_22_1263
*8493 FILLER_0_22_1275
*8494 FILLER_0_22_1281
*8495 FILLER_0_22_1283
*8496 FILLER_0_22_1295
*8497 FILLER_0_22_1307
*8498 FILLER_0_22_1319
*8499 FILLER_0_22_1331
*8500 FILLER_0_22_1337
*8501 FILLER_0_22_1339
*8502 FILLER_0_22_1343
*8503 FILLER_0_22_15
*8504 FILLER_0_22_27
*8505 FILLER_0_22_29
*8506 FILLER_0_22_3
*8507 FILLER_0_22_41
*8508 FILLER_0_22_49
*8509 FILLER_0_22_593
*8510 FILLER_0_22_605
*8511 FILLER_0_22_617
*8512 FILLER_0_22_619
*8513 FILLER_0_22_631
*8514 FILLER_0_22_643
*8515 FILLER_0_22_655
*8516 FILLER_0_23_1201
*8517 FILLER_0_23_1213
*8518 FILLER_0_23_1225
*8519 FILLER_0_23_1237
*8520 FILLER_0_23_1249
*8521 FILLER_0_23_1253
*8522 FILLER_0_23_1255
*8523 FILLER_0_23_1267
*8524 FILLER_0_23_1279
*8525 FILLER_0_23_1291
*8526 FILLER_0_23_1303
*8527 FILLER_0_23_1309
*8528 FILLER_0_23_1311
*8529 FILLER_0_23_1323
*8530 FILLER_0_23_1335
*8531 FILLER_0_23_15
*8532 FILLER_0_23_27
*8533 FILLER_0_23_3
*8534 FILLER_0_23_39
*8535 FILLER_0_23_47
*8536 FILLER_0_23_593
*8537 FILLER_0_23_605
*8538 FILLER_0_23_617
*8539 FILLER_0_23_629
*8540 FILLER_0_23_641
*8541 FILLER_0_23_645
*8542 FILLER_0_23_647
*8543 FILLER_0_23_655
*8544 FILLER_0_24_1201
*8545 FILLER_0_24_1213
*8546 FILLER_0_24_1225
*8547 FILLER_0_24_1227
*8548 FILLER_0_24_1239
*8549 FILLER_0_24_1251
*8550 FILLER_0_24_1263
*8551 FILLER_0_24_1275
*8552 FILLER_0_24_1281
*8553 FILLER_0_24_1283
*8554 FILLER_0_24_1295
*8555 FILLER_0_24_13
*8556 FILLER_0_24_1307
*8557 FILLER_0_24_1319
*8558 FILLER_0_24_1331
*8559 FILLER_0_24_1337
*8560 FILLER_0_24_1339
*8561 FILLER_0_24_1343
*8562 FILLER_0_24_25
*8563 FILLER_0_24_29
*8564 FILLER_0_24_41
*8565 FILLER_0_24_49
*8566 FILLER_0_24_593
*8567 FILLER_0_24_605
*8568 FILLER_0_24_617
*8569 FILLER_0_24_619
*8570 FILLER_0_24_631
*8571 FILLER_0_24_643
*8572 FILLER_0_24_655
*8573 FILLER_0_24_9
*8574 FILLER_0_25_1201
*8575 FILLER_0_25_1213
*8576 FILLER_0_25_1225
*8577 FILLER_0_25_1237
*8578 FILLER_0_25_1249
*8579 FILLER_0_25_1253
*8580 FILLER_0_25_1255
*8581 FILLER_0_25_1267
*8582 FILLER_0_25_1279
*8583 FILLER_0_25_1291
*8584 FILLER_0_25_1303
*8585 FILLER_0_25_1309
*8586 FILLER_0_25_1311
*8587 FILLER_0_25_1323
*8588 FILLER_0_25_1335
*8589 FILLER_0_25_1343
*8590 FILLER_0_25_15
*8591 FILLER_0_25_27
*8592 FILLER_0_25_3
*8593 FILLER_0_25_39
*8594 FILLER_0_25_47
*8595 FILLER_0_25_593
*8596 FILLER_0_25_605
*8597 FILLER_0_25_617
*8598 FILLER_0_25_629
*8599 FILLER_0_25_641
*8600 FILLER_0_25_645
*8601 FILLER_0_25_647
*8602 FILLER_0_25_655
*8603 FILLER_0_26_1201
*8604 FILLER_0_26_1213
*8605 FILLER_0_26_1225
*8606 FILLER_0_26_1227
*8607 FILLER_0_26_1239
*8608 FILLER_0_26_1251
*8609 FILLER_0_26_1263
*8610 FILLER_0_26_1275
*8611 FILLER_0_26_1281
*8612 FILLER_0_26_1283
*8613 FILLER_0_26_1295
*8614 FILLER_0_26_1307
*8615 FILLER_0_26_1319
*8616 FILLER_0_26_1331
*8617 FILLER_0_26_1337
*8618 FILLER_0_26_1339
*8619 FILLER_0_26_1343
*8620 FILLER_0_26_15
*8621 FILLER_0_26_27
*8622 FILLER_0_26_29
*8623 FILLER_0_26_3
*8624 FILLER_0_26_41
*8625 FILLER_0_26_49
*8626 FILLER_0_26_593
*8627 FILLER_0_26_605
*8628 FILLER_0_26_617
*8629 FILLER_0_26_619
*8630 FILLER_0_26_631
*8631 FILLER_0_26_643
*8632 FILLER_0_26_655
*8633 FILLER_0_27_1201
*8634 FILLER_0_27_1213
*8635 FILLER_0_27_1225
*8636 FILLER_0_27_1237
*8637 FILLER_0_27_1249
*8638 FILLER_0_27_1253
*8639 FILLER_0_27_1255
*8640 FILLER_0_27_1267
*8641 FILLER_0_27_1279
*8642 FILLER_0_27_1291
*8643 FILLER_0_27_1303
*8644 FILLER_0_27_1309
*8645 FILLER_0_27_1311
*8646 FILLER_0_27_1323
*8647 FILLER_0_27_1335
*8648 FILLER_0_27_1343
*8649 FILLER_0_27_15
*8650 FILLER_0_27_27
*8651 FILLER_0_27_3
*8652 FILLER_0_27_39
*8653 FILLER_0_27_47
*8654 FILLER_0_27_593
*8655 FILLER_0_27_605
*8656 FILLER_0_27_617
*8657 FILLER_0_27_629
*8658 FILLER_0_27_641
*8659 FILLER_0_27_645
*8660 FILLER_0_27_647
*8661 FILLER_0_27_655
*8662 FILLER_0_28_1201
*8663 FILLER_0_28_1213
*8664 FILLER_0_28_1225
*8665 FILLER_0_28_1227
*8666 FILLER_0_28_1239
*8667 FILLER_0_28_1251
*8668 FILLER_0_28_1263
*8669 FILLER_0_28_1275
*8670 FILLER_0_28_1281
*8671 FILLER_0_28_1283
*8672 FILLER_0_28_1295
*8673 FILLER_0_28_13
*8674 FILLER_0_28_1307
*8675 FILLER_0_28_1319
*8676 FILLER_0_28_1331
*8677 FILLER_0_28_1337
*8678 FILLER_0_28_1339
*8679 FILLER_0_28_1343
*8680 FILLER_0_28_25
*8681 FILLER_0_28_29
*8682 FILLER_0_28_41
*8683 FILLER_0_28_49
*8684 FILLER_0_28_593
*8685 FILLER_0_28_605
*8686 FILLER_0_28_617
*8687 FILLER_0_28_619
*8688 FILLER_0_28_631
*8689 FILLER_0_28_643
*8690 FILLER_0_28_655
*8691 FILLER_0_28_9
*8692 FILLER_0_29_1201
*8693 FILLER_0_29_1213
*8694 FILLER_0_29_1225
*8695 FILLER_0_29_1237
*8696 FILLER_0_29_1249
*8697 FILLER_0_29_1253
*8698 FILLER_0_29_1255
*8699 FILLER_0_29_1267
*8700 FILLER_0_29_1279
*8701 FILLER_0_29_1291
*8702 FILLER_0_29_1303
*8703 FILLER_0_29_1309
*8704 FILLER_0_29_1311
*8705 FILLER_0_29_1323
*8706 FILLER_0_29_1335
*8707 FILLER_0_29_15
*8708 FILLER_0_29_27
*8709 FILLER_0_29_3
*8710 FILLER_0_29_39
*8711 FILLER_0_29_47
*8712 FILLER_0_29_593
*8713 FILLER_0_29_605
*8714 FILLER_0_29_617
*8715 FILLER_0_29_629
*8716 FILLER_0_29_641
*8717 FILLER_0_29_645
*8718 FILLER_0_29_647
*8719 FILLER_0_29_655
*8720 FILLER_0_2_1005
*8721 FILLER_0_2_1017
*8722 FILLER_0_2_1029
*8723 FILLER_0_2_1035
*8724 FILLER_0_2_1037
*8725 FILLER_0_2_1049
*8726 FILLER_0_2_1061
*8727 FILLER_0_2_1073
*8728 FILLER_0_2_1085
*8729 FILLER_0_2_109
*8730 FILLER_0_2_1091
*8731 FILLER_0_2_1093
*8732 FILLER_0_2_1105
*8733 FILLER_0_2_1117
*8734 FILLER_0_2_1129
*8735 FILLER_0_2_1141
*8736 FILLER_0_2_1147
*8737 FILLER_0_2_1149
*8738 FILLER_0_2_1161
*8739 FILLER_0_2_1173
*8740 FILLER_0_2_1185
*8741 FILLER_0_2_1197
*8742 FILLER_0_2_1203
*8743 FILLER_0_2_1205
*8744 FILLER_0_2_121
*8745 FILLER_0_2_1217
*8746 FILLER_0_2_1229
*8747 FILLER_0_2_1241
*8748 FILLER_0_2_1253
*8749 FILLER_0_2_1259
*8750 FILLER_0_2_1261
*8751 FILLER_0_2_1273
*8752 FILLER_0_2_1285
*8753 FILLER_0_2_1297
*8754 FILLER_0_2_1309
*8755 FILLER_0_2_1315
*8756 FILLER_0_2_1317
*8757 FILLER_0_2_1329
*8758 FILLER_0_2_133
*8759 FILLER_0_2_1341
*8760 FILLER_0_2_139
*8761 FILLER_0_2_141
*8762 FILLER_0_2_15
*8763 FILLER_0_2_153
*8764 FILLER_0_2_165
*8765 FILLER_0_2_177
*8766 FILLER_0_2_189
*8767 FILLER_0_2_195
*8768 FILLER_0_2_197
*8769 FILLER_0_2_209
*8770 FILLER_0_2_221
*8771 FILLER_0_2_233
*8772 FILLER_0_2_245
*8773 FILLER_0_2_251
*8774 FILLER_0_2_253
*8775 FILLER_0_2_265
*8776 FILLER_0_2_27
*8777 FILLER_0_2_277
*8778 FILLER_0_2_289
*8779 FILLER_0_2_29
*8780 FILLER_0_2_3
*8781 FILLER_0_2_301
*8782 FILLER_0_2_307
*8783 FILLER_0_2_309
*8784 FILLER_0_2_321
*8785 FILLER_0_2_333
*8786 FILLER_0_2_345
*8787 FILLER_0_2_357
*8788 FILLER_0_2_363
*8789 FILLER_0_2_365
*8790 FILLER_0_2_377
*8791 FILLER_0_2_389
*8792 FILLER_0_2_401
*8793 FILLER_0_2_41
*8794 FILLER_0_2_413
*8795 FILLER_0_2_419
*8796 FILLER_0_2_421
*8797 FILLER_0_2_433
*8798 FILLER_0_2_445
*8799 FILLER_0_2_457
*8800 FILLER_0_2_469
*8801 FILLER_0_2_475
*8802 FILLER_0_2_477
*8803 FILLER_0_2_489
*8804 FILLER_0_2_501
*8805 FILLER_0_2_513
*8806 FILLER_0_2_525
*8807 FILLER_0_2_53
*8808 FILLER_0_2_531
*8809 FILLER_0_2_533
*8810 FILLER_0_2_545
*8811 FILLER_0_2_557
*8812 FILLER_0_2_569
*8813 FILLER_0_2_581
*8814 FILLER_0_2_587
*8815 FILLER_0_2_589
*8816 FILLER_0_2_601
*8817 FILLER_0_2_613
*8818 FILLER_0_2_625
*8819 FILLER_0_2_637
*8820 FILLER_0_2_643
*8821 FILLER_0_2_645
*8822 FILLER_0_2_65
*8823 FILLER_0_2_657
*8824 FILLER_0_2_669
*8825 FILLER_0_2_681
*8826 FILLER_0_2_693
*8827 FILLER_0_2_699
*8828 FILLER_0_2_701
*8829 FILLER_0_2_713
*8830 FILLER_0_2_725
*8831 FILLER_0_2_737
*8832 FILLER_0_2_749
*8833 FILLER_0_2_755
*8834 FILLER_0_2_757
*8835 FILLER_0_2_769
*8836 FILLER_0_2_77
*8837 FILLER_0_2_781
*8838 FILLER_0_2_793
*8839 FILLER_0_2_805
*8840 FILLER_0_2_811
*8841 FILLER_0_2_813
*8842 FILLER_0_2_825
*8843 FILLER_0_2_83
*8844 FILLER_0_2_837
*8845 FILLER_0_2_849
*8846 FILLER_0_2_85
*8847 FILLER_0_2_861
*8848 FILLER_0_2_867
*8849 FILLER_0_2_869
*8850 FILLER_0_2_881
*8851 FILLER_0_2_893
*8852 FILLER_0_2_905
*8853 FILLER_0_2_917
*8854 FILLER_0_2_923
*8855 FILLER_0_2_925
*8856 FILLER_0_2_937
*8857 FILLER_0_2_949
*8858 FILLER_0_2_961
*8859 FILLER_0_2_97
*8860 FILLER_0_2_973
*8861 FILLER_0_2_979
*8862 FILLER_0_2_981
*8863 FILLER_0_2_993
*8864 FILLER_0_30_1201
*8865 FILLER_0_30_1213
*8866 FILLER_0_30_1225
*8867 FILLER_0_30_1227
*8868 FILLER_0_30_1239
*8869 FILLER_0_30_1251
*8870 FILLER_0_30_1263
*8871 FILLER_0_30_1275
*8872 FILLER_0_30_1281
*8873 FILLER_0_30_1283
*8874 FILLER_0_30_1295
*8875 FILLER_0_30_1307
*8876 FILLER_0_30_1319
*8877 FILLER_0_30_1331
*8878 FILLER_0_30_1337
*8879 FILLER_0_30_1339
*8880 FILLER_0_30_1343
*8881 FILLER_0_30_15
*8882 FILLER_0_30_27
*8883 FILLER_0_30_29
*8884 FILLER_0_30_3
*8885 FILLER_0_30_41
*8886 FILLER_0_30_49
*8887 FILLER_0_30_593
*8888 FILLER_0_30_605
*8889 FILLER_0_30_617
*8890 FILLER_0_30_619
*8891 FILLER_0_30_631
*8892 FILLER_0_30_643
*8893 FILLER_0_30_655
*8894 FILLER_0_31_1201
*8895 FILLER_0_31_1213
*8896 FILLER_0_31_1225
*8897 FILLER_0_31_1237
*8898 FILLER_0_31_1249
*8899 FILLER_0_31_1253
*8900 FILLER_0_31_1255
*8901 FILLER_0_31_1267
*8902 FILLER_0_31_1279
*8903 FILLER_0_31_1291
*8904 FILLER_0_31_13
*8905 FILLER_0_31_1303
*8906 FILLER_0_31_1309
*8907 FILLER_0_31_1311
*8908 FILLER_0_31_1323
*8909 FILLER_0_31_1335
*8910 FILLER_0_31_1343
*8911 FILLER_0_31_25
*8912 FILLER_0_31_37
*8913 FILLER_0_31_45
*8914 FILLER_0_31_593
*8915 FILLER_0_31_605
*8916 FILLER_0_31_617
*8917 FILLER_0_31_629
*8918 FILLER_0_31_641
*8919 FILLER_0_31_645
*8920 FILLER_0_31_647
*8921 FILLER_0_31_655
*8922 FILLER_0_31_9
*8923 FILLER_0_32_1201
*8924 FILLER_0_32_1213
*8925 FILLER_0_32_1225
*8926 FILLER_0_32_1227
*8927 FILLER_0_32_1239
*8928 FILLER_0_32_1251
*8929 FILLER_0_32_1263
*8930 FILLER_0_32_1275
*8931 FILLER_0_32_1281
*8932 FILLER_0_32_1283
*8933 FILLER_0_32_1295
*8934 FILLER_0_32_1307
*8935 FILLER_0_32_1319
*8936 FILLER_0_32_1331
*8937 FILLER_0_32_1337
*8938 FILLER_0_32_1339
*8939 FILLER_0_32_1343
*8940 FILLER_0_32_15
*8941 FILLER_0_32_27
*8942 FILLER_0_32_29
*8943 FILLER_0_32_3
*8944 FILLER_0_32_41
*8945 FILLER_0_32_49
*8946 FILLER_0_32_593
*8947 FILLER_0_32_605
*8948 FILLER_0_32_617
*8949 FILLER_0_32_619
*8950 FILLER_0_32_631
*8951 FILLER_0_32_643
*8952 FILLER_0_32_655
*8953 FILLER_0_33_1201
*8954 FILLER_0_33_1213
*8955 FILLER_0_33_1225
*8956 FILLER_0_33_1237
*8957 FILLER_0_33_1249
*8958 FILLER_0_33_1253
*8959 FILLER_0_33_1255
*8960 FILLER_0_33_1267
*8961 FILLER_0_33_1279
*8962 FILLER_0_33_1291
*8963 FILLER_0_33_1303
*8964 FILLER_0_33_1309
*8965 FILLER_0_33_1311
*8966 FILLER_0_33_1323
*8967 FILLER_0_33_1335
*8968 FILLER_0_33_1343
*8969 FILLER_0_33_15
*8970 FILLER_0_33_27
*8971 FILLER_0_33_3
*8972 FILLER_0_33_39
*8973 FILLER_0_33_47
*8974 FILLER_0_33_593
*8975 FILLER_0_33_605
*8976 FILLER_0_33_617
*8977 FILLER_0_33_629
*8978 FILLER_0_33_641
*8979 FILLER_0_33_645
*8980 FILLER_0_33_647
*8981 FILLER_0_33_655
*8982 FILLER_0_34_1201
*8983 FILLER_0_34_1213
*8984 FILLER_0_34_1225
*8985 FILLER_0_34_1227
*8986 FILLER_0_34_1239
*8987 FILLER_0_34_1251
*8988 FILLER_0_34_1263
*8989 FILLER_0_34_1275
*8990 FILLER_0_34_1281
*8991 FILLER_0_34_1283
*8992 FILLER_0_34_1295
*8993 FILLER_0_34_1307
*8994 FILLER_0_34_1319
*8995 FILLER_0_34_1331
*8996 FILLER_0_34_1337
*8997 FILLER_0_34_1339
*8998 FILLER_0_34_1343
*8999 FILLER_0_34_15
*9000 FILLER_0_34_27
*9001 FILLER_0_34_29
*9002 FILLER_0_34_3
*9003 FILLER_0_34_41
*9004 FILLER_0_34_49
*9005 FILLER_0_34_593
*9006 FILLER_0_34_605
*9007 FILLER_0_34_617
*9008 FILLER_0_34_619
*9009 FILLER_0_34_631
*9010 FILLER_0_34_643
*9011 FILLER_0_34_655
*9012 FILLER_0_35_1201
*9013 FILLER_0_35_1213
*9014 FILLER_0_35_1225
*9015 FILLER_0_35_1237
*9016 FILLER_0_35_1249
*9017 FILLER_0_35_1253
*9018 FILLER_0_35_1255
*9019 FILLER_0_35_1267
*9020 FILLER_0_35_1279
*9021 FILLER_0_35_1291
*9022 FILLER_0_35_13
*9023 FILLER_0_35_1303
*9024 FILLER_0_35_1309
*9025 FILLER_0_35_1311
*9026 FILLER_0_35_1323
*9027 FILLER_0_35_1335
*9028 FILLER_0_35_25
*9029 FILLER_0_35_37
*9030 FILLER_0_35_45
*9031 FILLER_0_35_593
*9032 FILLER_0_35_605
*9033 FILLER_0_35_617
*9034 FILLER_0_35_629
*9035 FILLER_0_35_641
*9036 FILLER_0_35_645
*9037 FILLER_0_35_647
*9038 FILLER_0_35_655
*9039 FILLER_0_35_9
*9040 FILLER_0_36_1201
*9041 FILLER_0_36_1213
*9042 FILLER_0_36_1225
*9043 FILLER_0_36_1227
*9044 FILLER_0_36_1239
*9045 FILLER_0_36_1251
*9046 FILLER_0_36_1263
*9047 FILLER_0_36_1275
*9048 FILLER_0_36_1281
*9049 FILLER_0_36_1283
*9050 FILLER_0_36_1295
*9051 FILLER_0_36_1307
*9052 FILLER_0_36_1319
*9053 FILLER_0_36_1331
*9054 FILLER_0_36_1337
*9055 FILLER_0_36_1339
*9056 FILLER_0_36_1343
*9057 FILLER_0_36_15
*9058 FILLER_0_36_27
*9059 FILLER_0_36_29
*9060 FILLER_0_36_3
*9061 FILLER_0_36_41
*9062 FILLER_0_36_49
*9063 FILLER_0_36_593
*9064 FILLER_0_36_605
*9065 FILLER_0_36_617
*9066 FILLER_0_36_619
*9067 FILLER_0_36_631
*9068 FILLER_0_36_643
*9069 FILLER_0_36_655
*9070 FILLER_0_37_1201
*9071 FILLER_0_37_1213
*9072 FILLER_0_37_1225
*9073 FILLER_0_37_1237
*9074 FILLER_0_37_1249
*9075 FILLER_0_37_1253
*9076 FILLER_0_37_1255
*9077 FILLER_0_37_1267
*9078 FILLER_0_37_1279
*9079 FILLER_0_37_1291
*9080 FILLER_0_37_1303
*9081 FILLER_0_37_1309
*9082 FILLER_0_37_1311
*9083 FILLER_0_37_1323
*9084 FILLER_0_37_1335
*9085 FILLER_0_37_1343
*9086 FILLER_0_37_15
*9087 FILLER_0_37_27
*9088 FILLER_0_37_3
*9089 FILLER_0_37_39
*9090 FILLER_0_37_47
*9091 FILLER_0_37_593
*9092 FILLER_0_37_605
*9093 FILLER_0_37_617
*9094 FILLER_0_37_629
*9095 FILLER_0_37_641
*9096 FILLER_0_37_645
*9097 FILLER_0_37_647
*9098 FILLER_0_37_655
*9099 FILLER_0_38_1201
*9100 FILLER_0_38_1213
*9101 FILLER_0_38_1225
*9102 FILLER_0_38_1227
*9103 FILLER_0_38_1239
*9104 FILLER_0_38_1251
*9105 FILLER_0_38_1263
*9106 FILLER_0_38_1275
*9107 FILLER_0_38_1281
*9108 FILLER_0_38_1283
*9109 FILLER_0_38_1295
*9110 FILLER_0_38_13
*9111 FILLER_0_38_1307
*9112 FILLER_0_38_1319
*9113 FILLER_0_38_1331
*9114 FILLER_0_38_1337
*9115 FILLER_0_38_1339
*9116 FILLER_0_38_1343
*9117 FILLER_0_38_25
*9118 FILLER_0_38_29
*9119 FILLER_0_38_41
*9120 FILLER_0_38_49
*9121 FILLER_0_38_593
*9122 FILLER_0_38_605
*9123 FILLER_0_38_617
*9124 FILLER_0_38_619
*9125 FILLER_0_38_631
*9126 FILLER_0_38_643
*9127 FILLER_0_38_655
*9128 FILLER_0_38_9
*9129 FILLER_0_39_1201
*9130 FILLER_0_39_1213
*9131 FILLER_0_39_1225
*9132 FILLER_0_39_1237
*9133 FILLER_0_39_1249
*9134 FILLER_0_39_1253
*9135 FILLER_0_39_1255
*9136 FILLER_0_39_1267
*9137 FILLER_0_39_1279
*9138 FILLER_0_39_1291
*9139 FILLER_0_39_1303
*9140 FILLER_0_39_1309
*9141 FILLER_0_39_1311
*9142 FILLER_0_39_1323
*9143 FILLER_0_39_1335
*9144 FILLER_0_39_1343
*9145 FILLER_0_39_15
*9146 FILLER_0_39_27
*9147 FILLER_0_39_3
*9148 FILLER_0_39_39
*9149 FILLER_0_39_47
*9150 FILLER_0_39_593
*9151 FILLER_0_39_605
*9152 FILLER_0_39_617
*9153 FILLER_0_39_629
*9154 FILLER_0_39_641
*9155 FILLER_0_39_645
*9156 FILLER_0_39_647
*9157 FILLER_0_39_655
*9158 FILLER_0_3_1001
*9159 FILLER_0_3_1007
*9160 FILLER_0_3_1009
*9161 FILLER_0_3_1021
*9162 FILLER_0_3_1033
*9163 FILLER_0_3_1045
*9164 FILLER_0_3_105
*9165 FILLER_0_3_1057
*9166 FILLER_0_3_1063
*9167 FILLER_0_3_1065
*9168 FILLER_0_3_1077
*9169 FILLER_0_3_1089
*9170 FILLER_0_3_11
*9171 FILLER_0_3_1101
*9172 FILLER_0_3_111
*9173 FILLER_0_3_1113
*9174 FILLER_0_3_1119
*9175 FILLER_0_3_1121
*9176 FILLER_0_3_113
*9177 FILLER_0_3_1133
*9178 FILLER_0_3_1145
*9179 FILLER_0_3_1157
*9180 FILLER_0_3_1169
*9181 FILLER_0_3_1175
*9182 FILLER_0_3_1177
*9183 FILLER_0_3_1189
*9184 FILLER_0_3_1201
*9185 FILLER_0_3_1213
*9186 FILLER_0_3_1225
*9187 FILLER_0_3_1231
*9188 FILLER_0_3_1233
*9189 FILLER_0_3_1245
*9190 FILLER_0_3_125
*9191 FILLER_0_3_1257
*9192 FILLER_0_3_1269
*9193 FILLER_0_3_1281
*9194 FILLER_0_3_1287
*9195 FILLER_0_3_1289
*9196 FILLER_0_3_1301
*9197 FILLER_0_3_1313
*9198 FILLER_0_3_1325
*9199 FILLER_0_3_1337
*9200 FILLER_0_3_1343
*9201 FILLER_0_3_137
*9202 FILLER_0_3_149
*9203 FILLER_0_3_161
*9204 FILLER_0_3_167
*9205 FILLER_0_3_169
*9206 FILLER_0_3_181
*9207 FILLER_0_3_193
*9208 FILLER_0_3_205
*9209 FILLER_0_3_217
*9210 FILLER_0_3_223
*9211 FILLER_0_3_225
*9212 FILLER_0_3_23
*9213 FILLER_0_3_237
*9214 FILLER_0_3_249
*9215 FILLER_0_3_261
*9216 FILLER_0_3_273
*9217 FILLER_0_3_279
*9218 FILLER_0_3_281
*9219 FILLER_0_3_293
*9220 FILLER_0_3_305
*9221 FILLER_0_3_317
*9222 FILLER_0_3_329
*9223 FILLER_0_3_335
*9224 FILLER_0_3_337
*9225 FILLER_0_3_349
*9226 FILLER_0_3_35
*9227 FILLER_0_3_361
*9228 FILLER_0_3_373
*9229 FILLER_0_3_385
*9230 FILLER_0_3_391
*9231 FILLER_0_3_393
*9232 FILLER_0_3_405
*9233 FILLER_0_3_417
*9234 FILLER_0_3_429
*9235 FILLER_0_3_441
*9236 FILLER_0_3_447
*9237 FILLER_0_3_449
*9238 FILLER_0_3_461
*9239 FILLER_0_3_47
*9240 FILLER_0_3_473
*9241 FILLER_0_3_485
*9242 FILLER_0_3_497
*9243 FILLER_0_3_503
*9244 FILLER_0_3_505
*9245 FILLER_0_3_517
*9246 FILLER_0_3_529
*9247 FILLER_0_3_541
*9248 FILLER_0_3_55
*9249 FILLER_0_3_553
*9250 FILLER_0_3_559
*9251 FILLER_0_3_561
*9252 FILLER_0_3_57
*9253 FILLER_0_3_573
*9254 FILLER_0_3_585
*9255 FILLER_0_3_597
*9256 FILLER_0_3_609
*9257 FILLER_0_3_615
*9258 FILLER_0_3_617
*9259 FILLER_0_3_629
*9260 FILLER_0_3_641
*9261 FILLER_0_3_653
*9262 FILLER_0_3_665
*9263 FILLER_0_3_671
*9264 FILLER_0_3_673
*9265 FILLER_0_3_685
*9266 FILLER_0_3_69
*9267 FILLER_0_3_697
*9268 FILLER_0_3_7
*9269 FILLER_0_3_709
*9270 FILLER_0_3_721
*9271 FILLER_0_3_727
*9272 FILLER_0_3_729
*9273 FILLER_0_3_741
*9274 FILLER_0_3_753
*9275 FILLER_0_3_765
*9276 FILLER_0_3_777
*9277 FILLER_0_3_783
*9278 FILLER_0_3_785
*9279 FILLER_0_3_797
*9280 FILLER_0_3_809
*9281 FILLER_0_3_81
*9282 FILLER_0_3_821
*9283 FILLER_0_3_833
*9284 FILLER_0_3_839
*9285 FILLER_0_3_841
*9286 FILLER_0_3_853
*9287 FILLER_0_3_865
*9288 FILLER_0_3_877
*9289 FILLER_0_3_889
*9290 FILLER_0_3_895
*9291 FILLER_0_3_897
*9292 FILLER_0_3_909
*9293 FILLER_0_3_921
*9294 FILLER_0_3_93
*9295 FILLER_0_3_933
*9296 FILLER_0_3_945
*9297 FILLER_0_3_951
*9298 FILLER_0_3_953
*9299 FILLER_0_3_965
*9300 FILLER_0_3_977
*9301 FILLER_0_3_989
*9302 FILLER_0_40_1201
*9303 FILLER_0_40_1213
*9304 FILLER_0_40_1225
*9305 FILLER_0_40_1227
*9306 FILLER_0_40_1239
*9307 FILLER_0_40_1251
*9308 FILLER_0_40_1263
*9309 FILLER_0_40_1275
*9310 FILLER_0_40_1281
*9311 FILLER_0_40_1283
*9312 FILLER_0_40_1295
*9313 FILLER_0_40_1307
*9314 FILLER_0_40_1319
*9315 FILLER_0_40_1331
*9316 FILLER_0_40_1337
*9317 FILLER_0_40_1339
*9318 FILLER_0_40_1343
*9319 FILLER_0_40_15
*9320 FILLER_0_40_27
*9321 FILLER_0_40_29
*9322 FILLER_0_40_3
*9323 FILLER_0_40_41
*9324 FILLER_0_40_49
*9325 FILLER_0_40_593
*9326 FILLER_0_40_605
*9327 FILLER_0_40_617
*9328 FILLER_0_40_619
*9329 FILLER_0_40_631
*9330 FILLER_0_40_643
*9331 FILLER_0_40_655
*9332 FILLER_0_41_1201
*9333 FILLER_0_41_1213
*9334 FILLER_0_41_1225
*9335 FILLER_0_41_1237
*9336 FILLER_0_41_1249
*9337 FILLER_0_41_1253
*9338 FILLER_0_41_1255
*9339 FILLER_0_41_1267
*9340 FILLER_0_41_1279
*9341 FILLER_0_41_1291
*9342 FILLER_0_41_1303
*9343 FILLER_0_41_1309
*9344 FILLER_0_41_1311
*9345 FILLER_0_41_1323
*9346 FILLER_0_41_1335
*9347 FILLER_0_41_15
*9348 FILLER_0_41_27
*9349 FILLER_0_41_3
*9350 FILLER_0_41_39
*9351 FILLER_0_41_47
*9352 FILLER_0_41_593
*9353 FILLER_0_41_605
*9354 FILLER_0_41_617
*9355 FILLER_0_41_629
*9356 FILLER_0_41_641
*9357 FILLER_0_41_645
*9358 FILLER_0_41_647
*9359 FILLER_0_41_655
*9360 FILLER_0_42_1201
*9361 FILLER_0_42_1213
*9362 FILLER_0_42_1225
*9363 FILLER_0_42_1227
*9364 FILLER_0_42_1239
*9365 FILLER_0_42_1251
*9366 FILLER_0_42_1263
*9367 FILLER_0_42_1275
*9368 FILLER_0_42_1281
*9369 FILLER_0_42_1283
*9370 FILLER_0_42_1295
*9371 FILLER_0_42_13
*9372 FILLER_0_42_1307
*9373 FILLER_0_42_1319
*9374 FILLER_0_42_1331
*9375 FILLER_0_42_1337
*9376 FILLER_0_42_1339
*9377 FILLER_0_42_1343
*9378 FILLER_0_42_25
*9379 FILLER_0_42_29
*9380 FILLER_0_42_41
*9381 FILLER_0_42_49
*9382 FILLER_0_42_593
*9383 FILLER_0_42_605
*9384 FILLER_0_42_617
*9385 FILLER_0_42_619
*9386 FILLER_0_42_631
*9387 FILLER_0_42_643
*9388 FILLER_0_42_655
*9389 FILLER_0_42_9
*9390 FILLER_0_43_1201
*9391 FILLER_0_43_1213
*9392 FILLER_0_43_1225
*9393 FILLER_0_43_1237
*9394 FILLER_0_43_1249
*9395 FILLER_0_43_1253
*9396 FILLER_0_43_1255
*9397 FILLER_0_43_1267
*9398 FILLER_0_43_1279
*9399 FILLER_0_43_1291
*9400 FILLER_0_43_1303
*9401 FILLER_0_43_1309
*9402 FILLER_0_43_1311
*9403 FILLER_0_43_1323
*9404 FILLER_0_43_1335
*9405 FILLER_0_43_1343
*9406 FILLER_0_43_15
*9407 FILLER_0_43_27
*9408 FILLER_0_43_3
*9409 FILLER_0_43_39
*9410 FILLER_0_43_47
*9411 FILLER_0_43_593
*9412 FILLER_0_43_605
*9413 FILLER_0_43_617
*9414 FILLER_0_43_629
*9415 FILLER_0_43_641
*9416 FILLER_0_43_645
*9417 FILLER_0_43_647
*9418 FILLER_0_43_655
*9419 FILLER_0_44_1201
*9420 FILLER_0_44_1213
*9421 FILLER_0_44_1225
*9422 FILLER_0_44_1227
*9423 FILLER_0_44_1239
*9424 FILLER_0_44_1251
*9425 FILLER_0_44_1263
*9426 FILLER_0_44_1275
*9427 FILLER_0_44_1281
*9428 FILLER_0_44_1283
*9429 FILLER_0_44_1295
*9430 FILLER_0_44_1307
*9431 FILLER_0_44_1319
*9432 FILLER_0_44_1331
*9433 FILLER_0_44_1337
*9434 FILLER_0_44_1339
*9435 FILLER_0_44_1343
*9436 FILLER_0_44_15
*9437 FILLER_0_44_27
*9438 FILLER_0_44_29
*9439 FILLER_0_44_3
*9440 FILLER_0_44_41
*9441 FILLER_0_44_49
*9442 FILLER_0_44_593
*9443 FILLER_0_44_605
*9444 FILLER_0_44_617
*9445 FILLER_0_44_619
*9446 FILLER_0_44_631
*9447 FILLER_0_44_643
*9448 FILLER_0_44_655
*9449 FILLER_0_45_1201
*9450 FILLER_0_45_1213
*9451 FILLER_0_45_1225
*9452 FILLER_0_45_1237
*9453 FILLER_0_45_1249
*9454 FILLER_0_45_1253
*9455 FILLER_0_45_1255
*9456 FILLER_0_45_1267
*9457 FILLER_0_45_1279
*9458 FILLER_0_45_1291
*9459 FILLER_0_45_13
*9460 FILLER_0_45_1303
*9461 FILLER_0_45_1309
*9462 FILLER_0_45_1311
*9463 FILLER_0_45_1323
*9464 FILLER_0_45_1335
*9465 FILLER_0_45_1343
*9466 FILLER_0_45_25
*9467 FILLER_0_45_37
*9468 FILLER_0_45_45
*9469 FILLER_0_45_593
*9470 FILLER_0_45_605
*9471 FILLER_0_45_617
*9472 FILLER_0_45_629
*9473 FILLER_0_45_641
*9474 FILLER_0_45_645
*9475 FILLER_0_45_647
*9476 FILLER_0_45_655
*9477 FILLER_0_45_9
*9478 FILLER_0_46_1201
*9479 FILLER_0_46_1213
*9480 FILLER_0_46_1225
*9481 FILLER_0_46_1227
*9482 FILLER_0_46_1239
*9483 FILLER_0_46_1251
*9484 FILLER_0_46_1263
*9485 FILLER_0_46_1275
*9486 FILLER_0_46_1281
*9487 FILLER_0_46_1283
*9488 FILLER_0_46_1295
*9489 FILLER_0_46_1307
*9490 FILLER_0_46_1319
*9491 FILLER_0_46_1331
*9492 FILLER_0_46_1337
*9493 FILLER_0_46_1339
*9494 FILLER_0_46_1343
*9495 FILLER_0_46_15
*9496 FILLER_0_46_27
*9497 FILLER_0_46_29
*9498 FILLER_0_46_3
*9499 FILLER_0_46_41
*9500 FILLER_0_46_49
*9501 FILLER_0_46_593
*9502 FILLER_0_46_605
*9503 FILLER_0_46_617
*9504 FILLER_0_46_619
*9505 FILLER_0_46_631
*9506 FILLER_0_46_643
*9507 FILLER_0_46_655
*9508 FILLER_0_47_1201
*9509 FILLER_0_47_1213
*9510 FILLER_0_47_1225
*9511 FILLER_0_47_1237
*9512 FILLER_0_47_1249
*9513 FILLER_0_47_1253
*9514 FILLER_0_47_1255
*9515 FILLER_0_47_1267
*9516 FILLER_0_47_1279
*9517 FILLER_0_47_1291
*9518 FILLER_0_47_1303
*9519 FILLER_0_47_1309
*9520 FILLER_0_47_1311
*9521 FILLER_0_47_1323
*9522 FILLER_0_47_1335
*9523 FILLER_0_47_15
*9524 FILLER_0_47_27
*9525 FILLER_0_47_3
*9526 FILLER_0_47_39
*9527 FILLER_0_47_47
*9528 FILLER_0_47_593
*9529 FILLER_0_47_605
*9530 FILLER_0_47_617
*9531 FILLER_0_47_629
*9532 FILLER_0_47_641
*9533 FILLER_0_47_645
*9534 FILLER_0_47_647
*9535 FILLER_0_47_655
*9536 FILLER_0_48_1201
*9537 FILLER_0_48_1213
*9538 FILLER_0_48_1225
*9539 FILLER_0_48_1227
*9540 FILLER_0_48_1239
*9541 FILLER_0_48_1251
*9542 FILLER_0_48_1263
*9543 FILLER_0_48_1275
*9544 FILLER_0_48_1281
*9545 FILLER_0_48_1283
*9546 FILLER_0_48_1295
*9547 FILLER_0_48_1307
*9548 FILLER_0_48_1319
*9549 FILLER_0_48_1331
*9550 FILLER_0_48_1337
*9551 FILLER_0_48_1339
*9552 FILLER_0_48_1343
*9553 FILLER_0_48_15
*9554 FILLER_0_48_27
*9555 FILLER_0_48_29
*9556 FILLER_0_48_3
*9557 FILLER_0_48_41
*9558 FILLER_0_48_49
*9559 FILLER_0_48_593
*9560 FILLER_0_48_605
*9561 FILLER_0_48_617
*9562 FILLER_0_48_619
*9563 FILLER_0_48_631
*9564 FILLER_0_48_643
*9565 FILLER_0_48_655
*9566 FILLER_0_49_1201
*9567 FILLER_0_49_1213
*9568 FILLER_0_49_1225
*9569 FILLER_0_49_1237
*9570 FILLER_0_49_1249
*9571 FILLER_0_49_1253
*9572 FILLER_0_49_1255
*9573 FILLER_0_49_1267
*9574 FILLER_0_49_1279
*9575 FILLER_0_49_1291
*9576 FILLER_0_49_13
*9577 FILLER_0_49_1303
*9578 FILLER_0_49_1309
*9579 FILLER_0_49_1311
*9580 FILLER_0_49_1323
*9581 FILLER_0_49_1335
*9582 FILLER_0_49_1343
*9583 FILLER_0_49_25
*9584 FILLER_0_49_37
*9585 FILLER_0_49_45
*9586 FILLER_0_49_593
*9587 FILLER_0_49_605
*9588 FILLER_0_49_617
*9589 FILLER_0_49_629
*9590 FILLER_0_49_641
*9591 FILLER_0_49_645
*9592 FILLER_0_49_647
*9593 FILLER_0_49_655
*9594 FILLER_0_49_9
*9595 FILLER_0_4_1005
*9596 FILLER_0_4_1017
*9597 FILLER_0_4_1029
*9598 FILLER_0_4_1035
*9599 FILLER_0_4_1037
*9600 FILLER_0_4_1049
*9601 FILLER_0_4_1061
*9602 FILLER_0_4_1073
*9603 FILLER_0_4_1085
*9604 FILLER_0_4_109
*9605 FILLER_0_4_1091
*9606 FILLER_0_4_1093
*9607 FILLER_0_4_1105
*9608 FILLER_0_4_1117
*9609 FILLER_0_4_1129
*9610 FILLER_0_4_1141
*9611 FILLER_0_4_1147
*9612 FILLER_0_4_1149
*9613 FILLER_0_4_1161
*9614 FILLER_0_4_1173
*9615 FILLER_0_4_1185
*9616 FILLER_0_4_1197
*9617 FILLER_0_4_1203
*9618 FILLER_0_4_1205
*9619 FILLER_0_4_121
*9620 FILLER_0_4_1217
*9621 FILLER_0_4_1229
*9622 FILLER_0_4_1241
*9623 FILLER_0_4_1253
*9624 FILLER_0_4_1259
*9625 FILLER_0_4_1261
*9626 FILLER_0_4_1273
*9627 FILLER_0_4_1285
*9628 FILLER_0_4_1297
*9629 FILLER_0_4_1309
*9630 FILLER_0_4_1315
*9631 FILLER_0_4_1317
*9632 FILLER_0_4_1329
*9633 FILLER_0_4_133
*9634 FILLER_0_4_1341
*9635 FILLER_0_4_139
*9636 FILLER_0_4_141
*9637 FILLER_0_4_15
*9638 FILLER_0_4_153
*9639 FILLER_0_4_165
*9640 FILLER_0_4_177
*9641 FILLER_0_4_189
*9642 FILLER_0_4_195
*9643 FILLER_0_4_197
*9644 FILLER_0_4_209
*9645 FILLER_0_4_221
*9646 FILLER_0_4_233
*9647 FILLER_0_4_245
*9648 FILLER_0_4_251
*9649 FILLER_0_4_253
*9650 FILLER_0_4_265
*9651 FILLER_0_4_27
*9652 FILLER_0_4_277
*9653 FILLER_0_4_289
*9654 FILLER_0_4_29
*9655 FILLER_0_4_3
*9656 FILLER_0_4_301
*9657 FILLER_0_4_307
*9658 FILLER_0_4_309
*9659 FILLER_0_4_321
*9660 FILLER_0_4_333
*9661 FILLER_0_4_345
*9662 FILLER_0_4_357
*9663 FILLER_0_4_363
*9664 FILLER_0_4_365
*9665 FILLER_0_4_377
*9666 FILLER_0_4_389
*9667 FILLER_0_4_401
*9668 FILLER_0_4_41
*9669 FILLER_0_4_413
*9670 FILLER_0_4_419
*9671 FILLER_0_4_421
*9672 FILLER_0_4_433
*9673 FILLER_0_4_445
*9674 FILLER_0_4_457
*9675 FILLER_0_4_469
*9676 FILLER_0_4_475
*9677 FILLER_0_4_477
*9678 FILLER_0_4_489
*9679 FILLER_0_4_501
*9680 FILLER_0_4_513
*9681 FILLER_0_4_525
*9682 FILLER_0_4_53
*9683 FILLER_0_4_531
*9684 FILLER_0_4_533
*9685 FILLER_0_4_545
*9686 FILLER_0_4_557
*9687 FILLER_0_4_569
*9688 FILLER_0_4_581
*9689 FILLER_0_4_587
*9690 FILLER_0_4_589
*9691 FILLER_0_4_601
*9692 FILLER_0_4_613
*9693 FILLER_0_4_625
*9694 FILLER_0_4_637
*9695 FILLER_0_4_643
*9696 FILLER_0_4_645
*9697 FILLER_0_4_65
*9698 FILLER_0_4_657
*9699 FILLER_0_4_669
*9700 FILLER_0_4_681
*9701 FILLER_0_4_693
*9702 FILLER_0_4_699
*9703 FILLER_0_4_701
*9704 FILLER_0_4_713
*9705 FILLER_0_4_725
*9706 FILLER_0_4_737
*9707 FILLER_0_4_749
*9708 FILLER_0_4_755
*9709 FILLER_0_4_757
*9710 FILLER_0_4_769
*9711 FILLER_0_4_77
*9712 FILLER_0_4_781
*9713 FILLER_0_4_793
*9714 FILLER_0_4_805
*9715 FILLER_0_4_811
*9716 FILLER_0_4_813
*9717 FILLER_0_4_825
*9718 FILLER_0_4_83
*9719 FILLER_0_4_837
*9720 FILLER_0_4_849
*9721 FILLER_0_4_85
*9722 FILLER_0_4_861
*9723 FILLER_0_4_867
*9724 FILLER_0_4_869
*9725 FILLER_0_4_881
*9726 FILLER_0_4_893
*9727 FILLER_0_4_905
*9728 FILLER_0_4_917
*9729 FILLER_0_4_923
*9730 FILLER_0_4_925
*9731 FILLER_0_4_937
*9732 FILLER_0_4_949
*9733 FILLER_0_4_961
*9734 FILLER_0_4_97
*9735 FILLER_0_4_973
*9736 FILLER_0_4_979
*9737 FILLER_0_4_981
*9738 FILLER_0_4_993
*9739 FILLER_0_50_1201
*9740 FILLER_0_50_1213
*9741 FILLER_0_50_1225
*9742 FILLER_0_50_1227
*9743 FILLER_0_50_1239
*9744 FILLER_0_50_1251
*9745 FILLER_0_50_1263
*9746 FILLER_0_50_1275
*9747 FILLER_0_50_1281
*9748 FILLER_0_50_1283
*9749 FILLER_0_50_1295
*9750 FILLER_0_50_1307
*9751 FILLER_0_50_1319
*9752 FILLER_0_50_1331
*9753 FILLER_0_50_1337
*9754 FILLER_0_50_1339
*9755 FILLER_0_50_1343
*9756 FILLER_0_50_15
*9757 FILLER_0_50_27
*9758 FILLER_0_50_29
*9759 FILLER_0_50_3
*9760 FILLER_0_50_41
*9761 FILLER_0_50_49
*9762 FILLER_0_50_593
*9763 FILLER_0_50_605
*9764 FILLER_0_50_617
*9765 FILLER_0_50_619
*9766 FILLER_0_50_631
*9767 FILLER_0_50_643
*9768 FILLER_0_50_655
*9769 FILLER_0_51_1201
*9770 FILLER_0_51_1213
*9771 FILLER_0_51_1225
*9772 FILLER_0_51_1237
*9773 FILLER_0_51_1249
*9774 FILLER_0_51_1253
*9775 FILLER_0_51_1255
*9776 FILLER_0_51_1267
*9777 FILLER_0_51_1279
*9778 FILLER_0_51_1291
*9779 FILLER_0_51_1303
*9780 FILLER_0_51_1309
*9781 FILLER_0_51_1311
*9782 FILLER_0_51_1323
*9783 FILLER_0_51_1335
*9784 FILLER_0_51_1343
*9785 FILLER_0_51_15
*9786 FILLER_0_51_27
*9787 FILLER_0_51_3
*9788 FILLER_0_51_39
*9789 FILLER_0_51_47
*9790 FILLER_0_51_593
*9791 FILLER_0_51_605
*9792 FILLER_0_51_617
*9793 FILLER_0_51_629
*9794 FILLER_0_51_641
*9795 FILLER_0_51_645
*9796 FILLER_0_51_647
*9797 FILLER_0_51_655
*9798 FILLER_0_52_1201
*9799 FILLER_0_52_1213
*9800 FILLER_0_52_1225
*9801 FILLER_0_52_1227
*9802 FILLER_0_52_1239
*9803 FILLER_0_52_1251
*9804 FILLER_0_52_1263
*9805 FILLER_0_52_1275
*9806 FILLER_0_52_1281
*9807 FILLER_0_52_1283
*9808 FILLER_0_52_1295
*9809 FILLER_0_52_13
*9810 FILLER_0_52_1307
*9811 FILLER_0_52_1319
*9812 FILLER_0_52_1331
*9813 FILLER_0_52_1337
*9814 FILLER_0_52_1339
*9815 FILLER_0_52_1343
*9816 FILLER_0_52_25
*9817 FILLER_0_52_29
*9818 FILLER_0_52_41
*9819 FILLER_0_52_49
*9820 FILLER_0_52_593
*9821 FILLER_0_52_605
*9822 FILLER_0_52_617
*9823 FILLER_0_52_619
*9824 FILLER_0_52_631
*9825 FILLER_0_52_643
*9826 FILLER_0_52_655
*9827 FILLER_0_52_9
*9828 FILLER_0_53_1201
*9829 FILLER_0_53_1213
*9830 FILLER_0_53_1225
*9831 FILLER_0_53_1237
*9832 FILLER_0_53_1249
*9833 FILLER_0_53_1253
*9834 FILLER_0_53_1255
*9835 FILLER_0_53_1267
*9836 FILLER_0_53_1279
*9837 FILLER_0_53_1291
*9838 FILLER_0_53_1303
*9839 FILLER_0_53_1309
*9840 FILLER_0_53_1311
*9841 FILLER_0_53_1323
*9842 FILLER_0_53_1335
*9843 FILLER_0_53_15
*9844 FILLER_0_53_27
*9845 FILLER_0_53_3
*9846 FILLER_0_53_39
*9847 FILLER_0_53_47
*9848 FILLER_0_53_593
*9849 FILLER_0_53_605
*9850 FILLER_0_53_617
*9851 FILLER_0_53_629
*9852 FILLER_0_53_641
*9853 FILLER_0_53_645
*9854 FILLER_0_53_647
*9855 FILLER_0_53_655
*9856 FILLER_0_54_1201
*9857 FILLER_0_54_1213
*9858 FILLER_0_54_1225
*9859 FILLER_0_54_1227
*9860 FILLER_0_54_1239
*9861 FILLER_0_54_1251
*9862 FILLER_0_54_1263
*9863 FILLER_0_54_1275
*9864 FILLER_0_54_1281
*9865 FILLER_0_54_1283
*9866 FILLER_0_54_1295
*9867 FILLER_0_54_1307
*9868 FILLER_0_54_1319
*9869 FILLER_0_54_1331
*9870 FILLER_0_54_1337
*9871 FILLER_0_54_1339
*9872 FILLER_0_54_1343
*9873 FILLER_0_54_15
*9874 FILLER_0_54_27
*9875 FILLER_0_54_29
*9876 FILLER_0_54_3
*9877 FILLER_0_54_41
*9878 FILLER_0_54_49
*9879 FILLER_0_54_593
*9880 FILLER_0_54_605
*9881 FILLER_0_54_617
*9882 FILLER_0_54_619
*9883 FILLER_0_54_631
*9884 FILLER_0_54_643
*9885 FILLER_0_54_655
*9886 FILLER_0_55_1201
*9887 FILLER_0_55_1213
*9888 FILLER_0_55_1225
*9889 FILLER_0_55_1237
*9890 FILLER_0_55_1249
*9891 FILLER_0_55_1253
*9892 FILLER_0_55_1255
*9893 FILLER_0_55_1267
*9894 FILLER_0_55_1279
*9895 FILLER_0_55_1291
*9896 FILLER_0_55_1303
*9897 FILLER_0_55_1309
*9898 FILLER_0_55_1311
*9899 FILLER_0_55_1323
*9900 FILLER_0_55_1335
*9901 FILLER_0_55_1343
*9902 FILLER_0_55_15
*9903 FILLER_0_55_27
*9904 FILLER_0_55_3
*9905 FILLER_0_55_39
*9906 FILLER_0_55_47
*9907 FILLER_0_55_593
*9908 FILLER_0_55_605
*9909 FILLER_0_55_617
*9910 FILLER_0_55_629
*9911 FILLER_0_55_641
*9912 FILLER_0_55_645
*9913 FILLER_0_55_647
*9914 FILLER_0_55_655
*9915 FILLER_0_56_1201
*9916 FILLER_0_56_1213
*9917 FILLER_0_56_1225
*9918 FILLER_0_56_1227
*9919 FILLER_0_56_1239
*9920 FILLER_0_56_1251
*9921 FILLER_0_56_1263
*9922 FILLER_0_56_1275
*9923 FILLER_0_56_1281
*9924 FILLER_0_56_1283
*9925 FILLER_0_56_1295
*9926 FILLER_0_56_13
*9927 FILLER_0_56_1307
*9928 FILLER_0_56_1319
*9929 FILLER_0_56_1331
*9930 FILLER_0_56_1337
*9931 FILLER_0_56_1339
*9932 FILLER_0_56_1343
*9933 FILLER_0_56_25
*9934 FILLER_0_56_29
*9935 FILLER_0_56_41
*9936 FILLER_0_56_49
*9937 FILLER_0_56_593
*9938 FILLER_0_56_605
*9939 FILLER_0_56_617
*9940 FILLER_0_56_619
*9941 FILLER_0_56_631
*9942 FILLER_0_56_643
*9943 FILLER_0_56_655
*9944 FILLER_0_56_9
*9945 FILLER_0_57_1201
*9946 FILLER_0_57_1213
*9947 FILLER_0_57_1225
*9948 FILLER_0_57_1237
*9949 FILLER_0_57_1249
*9950 FILLER_0_57_1253
*9951 FILLER_0_57_1255
*9952 FILLER_0_57_1267
*9953 FILLER_0_57_1279
*9954 FILLER_0_57_1291
*9955 FILLER_0_57_1303
*9956 FILLER_0_57_1309
*9957 FILLER_0_57_1311
*9958 FILLER_0_57_1323
*9959 FILLER_0_57_1335
*9960 FILLER_0_57_1343
*9961 FILLER_0_57_15
*9962 FILLER_0_57_27
*9963 FILLER_0_57_3
*9964 FILLER_0_57_39
*9965 FILLER_0_57_47
*9966 FILLER_0_57_593
*9967 FILLER_0_57_605
*9968 FILLER_0_57_617
*9969 FILLER_0_57_629
*9970 FILLER_0_57_641
*9971 FILLER_0_57_645
*9972 FILLER_0_57_647
*9973 FILLER_0_57_655
*9974 FILLER_0_58_1201
*9975 FILLER_0_58_1213
*9976 FILLER_0_58_1225
*9977 FILLER_0_58_1227
*9978 FILLER_0_58_1239
*9979 FILLER_0_58_1251
*9980 FILLER_0_58_1263
*9981 FILLER_0_58_1275
*9982 FILLER_0_58_1281
*9983 FILLER_0_58_1283
*9984 FILLER_0_58_1295
*9985 FILLER_0_58_1307
*9986 FILLER_0_58_1319
*9987 FILLER_0_58_1331
*9988 FILLER_0_58_1337
*9989 FILLER_0_58_1339
*9990 FILLER_0_58_1343
*9991 FILLER_0_58_15
*9992 FILLER_0_58_27
*9993 FILLER_0_58_29
*9994 FILLER_0_58_3
*9995 FILLER_0_58_41
*9996 FILLER_0_58_49
*9997 FILLER_0_58_593
*9998 FILLER_0_58_605
*9999 FILLER_0_58_617
*10000 FILLER_0_58_619
*10001 FILLER_0_58_631
*10002 FILLER_0_58_643
*10003 FILLER_0_58_655
*10004 FILLER_0_59_1201
*10005 FILLER_0_59_1213
*10006 FILLER_0_59_1225
*10007 FILLER_0_59_1237
*10008 FILLER_0_59_1249
*10009 FILLER_0_59_1253
*10010 FILLER_0_59_1255
*10011 FILLER_0_59_1267
*10012 FILLER_0_59_1279
*10013 FILLER_0_59_1291
*10014 FILLER_0_59_13
*10015 FILLER_0_59_1303
*10016 FILLER_0_59_1309
*10017 FILLER_0_59_1311
*10018 FILLER_0_59_1323
*10019 FILLER_0_59_1335
*10020 FILLER_0_59_25
*10021 FILLER_0_59_37
*10022 FILLER_0_59_45
*10023 FILLER_0_59_593
*10024 FILLER_0_59_605
*10025 FILLER_0_59_617
*10026 FILLER_0_59_629
*10027 FILLER_0_59_641
*10028 FILLER_0_59_645
*10029 FILLER_0_59_647
*10030 FILLER_0_59_655
*10031 FILLER_0_59_9
*10032 FILLER_0_5_1001
*10033 FILLER_0_5_1007
*10034 FILLER_0_5_1009
*10035 FILLER_0_5_1021
*10036 FILLER_0_5_1033
*10037 FILLER_0_5_1045
*10038 FILLER_0_5_105
*10039 FILLER_0_5_1057
*10040 FILLER_0_5_1063
*10041 FILLER_0_5_1065
*10042 FILLER_0_5_1077
*10043 FILLER_0_5_1089
*10044 FILLER_0_5_1101
*10045 FILLER_0_5_111
*10046 FILLER_0_5_1113
*10047 FILLER_0_5_1119
*10048 FILLER_0_5_1121
*10049 FILLER_0_5_113
*10050 FILLER_0_5_1133
*10051 FILLER_0_5_1145
*10052 FILLER_0_5_1157
*10053 FILLER_0_5_1169
*10054 FILLER_0_5_1175
*10055 FILLER_0_5_1177
*10056 FILLER_0_5_1189
*10057 FILLER_0_5_1201
*10058 FILLER_0_5_1213
*10059 FILLER_0_5_1225
*10060 FILLER_0_5_1231
*10061 FILLER_0_5_1233
*10062 FILLER_0_5_1245
*10063 FILLER_0_5_125
*10064 FILLER_0_5_1257
*10065 FILLER_0_5_1269
*10066 FILLER_0_5_1281
*10067 FILLER_0_5_1287
*10068 FILLER_0_5_1289
*10069 FILLER_0_5_1301
*10070 FILLER_0_5_1313
*10071 FILLER_0_5_1325
*10072 FILLER_0_5_1337
*10073 FILLER_0_5_1343
*10074 FILLER_0_5_137
*10075 FILLER_0_5_149
*10076 FILLER_0_5_15
*10077 FILLER_0_5_161
*10078 FILLER_0_5_167
*10079 FILLER_0_5_169
*10080 FILLER_0_5_181
*10081 FILLER_0_5_193
*10082 FILLER_0_5_205
*10083 FILLER_0_5_217
*10084 FILLER_0_5_223
*10085 FILLER_0_5_225
*10086 FILLER_0_5_237
*10087 FILLER_0_5_249
*10088 FILLER_0_5_261
*10089 FILLER_0_5_27
*10090 FILLER_0_5_273
*10091 FILLER_0_5_279
*10092 FILLER_0_5_281
*10093 FILLER_0_5_293
*10094 FILLER_0_5_3
*10095 FILLER_0_5_305
*10096 FILLER_0_5_317
*10097 FILLER_0_5_329
*10098 FILLER_0_5_335
*10099 FILLER_0_5_337
*10100 FILLER_0_5_349
*10101 FILLER_0_5_361
*10102 FILLER_0_5_373
*10103 FILLER_0_5_385
*10104 FILLER_0_5_39
*10105 FILLER_0_5_391
*10106 FILLER_0_5_393
*10107 FILLER_0_5_405
*10108 FILLER_0_5_417
*10109 FILLER_0_5_429
*10110 FILLER_0_5_441
*10111 FILLER_0_5_447
*10112 FILLER_0_5_449
*10113 FILLER_0_5_461
*10114 FILLER_0_5_473
*10115 FILLER_0_5_485
*10116 FILLER_0_5_497
*10117 FILLER_0_5_503
*10118 FILLER_0_5_505
*10119 FILLER_0_5_51
*10120 FILLER_0_5_517
*10121 FILLER_0_5_529
*10122 FILLER_0_5_541
*10123 FILLER_0_5_55
*10124 FILLER_0_5_553
*10125 FILLER_0_5_559
*10126 FILLER_0_5_561
*10127 FILLER_0_5_57
*10128 FILLER_0_5_573
*10129 FILLER_0_5_585
*10130 FILLER_0_5_597
*10131 FILLER_0_5_609
*10132 FILLER_0_5_615
*10133 FILLER_0_5_617
*10134 FILLER_0_5_629
*10135 FILLER_0_5_641
*10136 FILLER_0_5_653
*10137 FILLER_0_5_665
*10138 FILLER_0_5_671
*10139 FILLER_0_5_673
*10140 FILLER_0_5_685
*10141 FILLER_0_5_69
*10142 FILLER_0_5_697
*10143 FILLER_0_5_709
*10144 FILLER_0_5_721
*10145 FILLER_0_5_727
*10146 FILLER_0_5_729
*10147 FILLER_0_5_741
*10148 FILLER_0_5_753
*10149 FILLER_0_5_765
*10150 FILLER_0_5_777
*10151 FILLER_0_5_783
*10152 FILLER_0_5_785
*10153 FILLER_0_5_797
*10154 FILLER_0_5_809
*10155 FILLER_0_5_81
*10156 FILLER_0_5_821
*10157 FILLER_0_5_833
*10158 FILLER_0_5_839
*10159 FILLER_0_5_841
*10160 FILLER_0_5_853
*10161 FILLER_0_5_865
*10162 FILLER_0_5_877
*10163 FILLER_0_5_889
*10164 FILLER_0_5_895
*10165 FILLER_0_5_897
*10166 FILLER_0_5_909
*10167 FILLER_0_5_921
*10168 FILLER_0_5_93
*10169 FILLER_0_5_933
*10170 FILLER_0_5_945
*10171 FILLER_0_5_951
*10172 FILLER_0_5_953
*10173 FILLER_0_5_965
*10174 FILLER_0_5_977
*10175 FILLER_0_5_989
*10176 FILLER_0_60_1201
*10177 FILLER_0_60_1213
*10178 FILLER_0_60_1225
*10179 FILLER_0_60_1227
*10180 FILLER_0_60_1239
*10181 FILLER_0_60_1251
*10182 FILLER_0_60_1263
*10183 FILLER_0_60_1275
*10184 FILLER_0_60_1281
*10185 FILLER_0_60_1283
*10186 FILLER_0_60_1295
*10187 FILLER_0_60_1307
*10188 FILLER_0_60_1319
*10189 FILLER_0_60_1331
*10190 FILLER_0_60_1337
*10191 FILLER_0_60_1339
*10192 FILLER_0_60_1343
*10193 FILLER_0_60_15
*10194 FILLER_0_60_27
*10195 FILLER_0_60_29
*10196 FILLER_0_60_3
*10197 FILLER_0_60_41
*10198 FILLER_0_60_49
*10199 FILLER_0_60_593
*10200 FILLER_0_60_605
*10201 FILLER_0_60_617
*10202 FILLER_0_60_619
*10203 FILLER_0_60_631
*10204 FILLER_0_60_643
*10205 FILLER_0_60_655
*10206 FILLER_0_61_1201
*10207 FILLER_0_61_1213
*10208 FILLER_0_61_1225
*10209 FILLER_0_61_1237
*10210 FILLER_0_61_1249
*10211 FILLER_0_61_1253
*10212 FILLER_0_61_1255
*10213 FILLER_0_61_1267
*10214 FILLER_0_61_1279
*10215 FILLER_0_61_1291
*10216 FILLER_0_61_1303
*10217 FILLER_0_61_1309
*10218 FILLER_0_61_1311
*10219 FILLER_0_61_1323
*10220 FILLER_0_61_1335
*10221 FILLER_0_61_1343
*10222 FILLER_0_61_15
*10223 FILLER_0_61_27
*10224 FILLER_0_61_3
*10225 FILLER_0_61_39
*10226 FILLER_0_61_47
*10227 FILLER_0_61_593
*10228 FILLER_0_61_605
*10229 FILLER_0_61_617
*10230 FILLER_0_61_629
*10231 FILLER_0_61_641
*10232 FILLER_0_61_645
*10233 FILLER_0_61_647
*10234 FILLER_0_61_655
*10235 FILLER_0_62_1201
*10236 FILLER_0_62_1213
*10237 FILLER_0_62_1225
*10238 FILLER_0_62_1227
*10239 FILLER_0_62_1239
*10240 FILLER_0_62_1251
*10241 FILLER_0_62_1263
*10242 FILLER_0_62_1275
*10243 FILLER_0_62_1281
*10244 FILLER_0_62_1283
*10245 FILLER_0_62_1295
*10246 FILLER_0_62_1307
*10247 FILLER_0_62_1319
*10248 FILLER_0_62_1331
*10249 FILLER_0_62_1337
*10250 FILLER_0_62_1339
*10251 FILLER_0_62_1343
*10252 FILLER_0_62_15
*10253 FILLER_0_62_27
*10254 FILLER_0_62_29
*10255 FILLER_0_62_3
*10256 FILLER_0_62_41
*10257 FILLER_0_62_49
*10258 FILLER_0_62_593
*10259 FILLER_0_62_605
*10260 FILLER_0_62_617
*10261 FILLER_0_62_619
*10262 FILLER_0_62_631
*10263 FILLER_0_62_643
*10264 FILLER_0_62_655
*10265 FILLER_0_63_10
*10266 FILLER_0_63_1201
*10267 FILLER_0_63_1213
*10268 FILLER_0_63_1225
*10269 FILLER_0_63_1237
*10270 FILLER_0_63_1249
*10271 FILLER_0_63_1253
*10272 FILLER_0_63_1255
*10273 FILLER_0_63_1267
*10274 FILLER_0_63_1279
*10275 FILLER_0_63_1291
*10276 FILLER_0_63_1303
*10277 FILLER_0_63_1309
*10278 FILLER_0_63_1311
*10279 FILLER_0_63_1323
*10280 FILLER_0_63_1335
*10281 FILLER_0_63_1343
*10282 FILLER_0_63_22
*10283 FILLER_0_63_34
*10284 FILLER_0_63_46
*10285 FILLER_0_63_593
*10286 FILLER_0_63_6
*10287 FILLER_0_63_605
*10288 FILLER_0_63_617
*10289 FILLER_0_63_629
*10290 FILLER_0_63_641
*10291 FILLER_0_63_645
*10292 FILLER_0_63_647
*10293 FILLER_0_63_655
*10294 FILLER_0_64_1201
*10295 FILLER_0_64_1213
*10296 FILLER_0_64_1225
*10297 FILLER_0_64_1227
*10298 FILLER_0_64_1239
*10299 FILLER_0_64_1251
*10300 FILLER_0_64_1263
*10301 FILLER_0_64_1275
*10302 FILLER_0_64_1281
*10303 FILLER_0_64_1283
*10304 FILLER_0_64_1295
*10305 FILLER_0_64_1307
*10306 FILLER_0_64_1319
*10307 FILLER_0_64_1331
*10308 FILLER_0_64_1337
*10309 FILLER_0_64_1339
*10310 FILLER_0_64_1343
*10311 FILLER_0_64_15
*10312 FILLER_0_64_27
*10313 FILLER_0_64_29
*10314 FILLER_0_64_3
*10315 FILLER_0_64_41
*10316 FILLER_0_64_49
*10317 FILLER_0_64_593
*10318 FILLER_0_64_605
*10319 FILLER_0_64_617
*10320 FILLER_0_64_619
*10321 FILLER_0_64_631
*10322 FILLER_0_64_643
*10323 FILLER_0_64_655
*10324 FILLER_0_65_1201
*10325 FILLER_0_65_1213
*10326 FILLER_0_65_1225
*10327 FILLER_0_65_1237
*10328 FILLER_0_65_1249
*10329 FILLER_0_65_1253
*10330 FILLER_0_65_1255
*10331 FILLER_0_65_1267
*10332 FILLER_0_65_1279
*10333 FILLER_0_65_1291
*10334 FILLER_0_65_1303
*10335 FILLER_0_65_1309
*10336 FILLER_0_65_1311
*10337 FILLER_0_65_1323
*10338 FILLER_0_65_1335
*10339 FILLER_0_65_15
*10340 FILLER_0_65_27
*10341 FILLER_0_65_3
*10342 FILLER_0_65_39
*10343 FILLER_0_65_47
*10344 FILLER_0_65_593
*10345 FILLER_0_65_605
*10346 FILLER_0_65_617
*10347 FILLER_0_65_629
*10348 FILLER_0_65_641
*10349 FILLER_0_65_645
*10350 FILLER_0_65_647
*10351 FILLER_0_65_655
*10352 FILLER_0_66_10
*10353 FILLER_0_66_1201
*10354 FILLER_0_66_1213
*10355 FILLER_0_66_1225
*10356 FILLER_0_66_1227
*10357 FILLER_0_66_1239
*10358 FILLER_0_66_1251
*10359 FILLER_0_66_1263
*10360 FILLER_0_66_1275
*10361 FILLER_0_66_1281
*10362 FILLER_0_66_1283
*10363 FILLER_0_66_1295
*10364 FILLER_0_66_1307
*10365 FILLER_0_66_1319
*10366 FILLER_0_66_1331
*10367 FILLER_0_66_1337
*10368 FILLER_0_66_1339
*10369 FILLER_0_66_1343
*10370 FILLER_0_66_22
*10371 FILLER_0_66_29
*10372 FILLER_0_66_41
*10373 FILLER_0_66_49
*10374 FILLER_0_66_593
*10375 FILLER_0_66_6
*10376 FILLER_0_66_605
*10377 FILLER_0_66_617
*10378 FILLER_0_66_619
*10379 FILLER_0_66_631
*10380 FILLER_0_66_643
*10381 FILLER_0_66_655
*10382 FILLER_0_67_1201
*10383 FILLER_0_67_1213
*10384 FILLER_0_67_1225
*10385 FILLER_0_67_1237
*10386 FILLER_0_67_1249
*10387 FILLER_0_67_1253
*10388 FILLER_0_67_1255
*10389 FILLER_0_67_1267
*10390 FILLER_0_67_1279
*10391 FILLER_0_67_1291
*10392 FILLER_0_67_1303
*10393 FILLER_0_67_1309
*10394 FILLER_0_67_1311
*10395 FILLER_0_67_1323
*10396 FILLER_0_67_1335
*10397 FILLER_0_67_1343
*10398 FILLER_0_67_15
*10399 FILLER_0_67_27
*10400 FILLER_0_67_3
*10401 FILLER_0_67_39
*10402 FILLER_0_67_47
*10403 FILLER_0_67_593
*10404 FILLER_0_67_605
*10405 FILLER_0_67_617
*10406 FILLER_0_67_629
*10407 FILLER_0_67_641
*10408 FILLER_0_67_645
*10409 FILLER_0_67_647
*10410 FILLER_0_67_655
*10411 FILLER_0_68_1201
*10412 FILLER_0_68_1213
*10413 FILLER_0_68_1225
*10414 FILLER_0_68_1227
*10415 FILLER_0_68_1239
*10416 FILLER_0_68_1251
*10417 FILLER_0_68_1263
*10418 FILLER_0_68_1275
*10419 FILLER_0_68_1281
*10420 FILLER_0_68_1283
*10421 FILLER_0_68_1295
*10422 FILLER_0_68_1307
*10423 FILLER_0_68_1319
*10424 FILLER_0_68_1331
*10425 FILLER_0_68_1337
*10426 FILLER_0_68_1339
*10427 FILLER_0_68_1343
*10428 FILLER_0_68_15
*10429 FILLER_0_68_27
*10430 FILLER_0_68_29
*10431 FILLER_0_68_3
*10432 FILLER_0_68_41
*10433 FILLER_0_68_49
*10434 FILLER_0_68_593
*10435 FILLER_0_68_605
*10436 FILLER_0_68_617
*10437 FILLER_0_68_619
*10438 FILLER_0_68_631
*10439 FILLER_0_68_643
*10440 FILLER_0_68_655
*10441 FILLER_0_69_1201
*10442 FILLER_0_69_1213
*10443 FILLER_0_69_1225
*10444 FILLER_0_69_1237
*10445 FILLER_0_69_1249
*10446 FILLER_0_69_1253
*10447 FILLER_0_69_1255
*10448 FILLER_0_69_1267
*10449 FILLER_0_69_1279
*10450 FILLER_0_69_1291
*10451 FILLER_0_69_1303
*10452 FILLER_0_69_1309
*10453 FILLER_0_69_1311
*10454 FILLER_0_69_1323
*10455 FILLER_0_69_1335
*10456 FILLER_0_69_1343
*10457 FILLER_0_69_15
*10458 FILLER_0_69_27
*10459 FILLER_0_69_3
*10460 FILLER_0_69_39
*10461 FILLER_0_69_47
*10462 FILLER_0_69_593
*10463 FILLER_0_69_605
*10464 FILLER_0_69_617
*10465 FILLER_0_69_629
*10466 FILLER_0_69_641
*10467 FILLER_0_69_645
*10468 FILLER_0_69_647
*10469 FILLER_0_69_655
*10470 FILLER_0_6_1005
*10471 FILLER_0_6_1017
*10472 FILLER_0_6_1029
*10473 FILLER_0_6_1035
*10474 FILLER_0_6_1037
*10475 FILLER_0_6_1049
*10476 FILLER_0_6_1061
*10477 FILLER_0_6_1073
*10478 FILLER_0_6_1085
*10479 FILLER_0_6_109
*10480 FILLER_0_6_1091
*10481 FILLER_0_6_1093
*10482 FILLER_0_6_1105
*10483 FILLER_0_6_1117
*10484 FILLER_0_6_1129
*10485 FILLER_0_6_1141
*10486 FILLER_0_6_1147
*10487 FILLER_0_6_1149
*10488 FILLER_0_6_1161
*10489 FILLER_0_6_1173
*10490 FILLER_0_6_1185
*10491 FILLER_0_6_1197
*10492 FILLER_0_6_1203
*10493 FILLER_0_6_1205
*10494 FILLER_0_6_121
*10495 FILLER_0_6_1217
*10496 FILLER_0_6_1229
*10497 FILLER_0_6_1241
*10498 FILLER_0_6_1253
*10499 FILLER_0_6_1259
*10500 FILLER_0_6_1261
*10501 FILLER_0_6_1273
*10502 FILLER_0_6_1285
*10503 FILLER_0_6_1297
*10504 FILLER_0_6_1309
*10505 FILLER_0_6_1315
*10506 FILLER_0_6_1317
*10507 FILLER_0_6_1329
*10508 FILLER_0_6_133
*10509 FILLER_0_6_1341
*10510 FILLER_0_6_139
*10511 FILLER_0_6_141
*10512 FILLER_0_6_15
*10513 FILLER_0_6_153
*10514 FILLER_0_6_165
*10515 FILLER_0_6_177
*10516 FILLER_0_6_189
*10517 FILLER_0_6_195
*10518 FILLER_0_6_197
*10519 FILLER_0_6_209
*10520 FILLER_0_6_221
*10521 FILLER_0_6_233
*10522 FILLER_0_6_245
*10523 FILLER_0_6_251
*10524 FILLER_0_6_253
*10525 FILLER_0_6_265
*10526 FILLER_0_6_27
*10527 FILLER_0_6_277
*10528 FILLER_0_6_289
*10529 FILLER_0_6_29
*10530 FILLER_0_6_3
*10531 FILLER_0_6_301
*10532 FILLER_0_6_307
*10533 FILLER_0_6_309
*10534 FILLER_0_6_321
*10535 FILLER_0_6_333
*10536 FILLER_0_6_345
*10537 FILLER_0_6_357
*10538 FILLER_0_6_363
*10539 FILLER_0_6_365
*10540 FILLER_0_6_377
*10541 FILLER_0_6_389
*10542 FILLER_0_6_401
*10543 FILLER_0_6_41
*10544 FILLER_0_6_413
*10545 FILLER_0_6_419
*10546 FILLER_0_6_421
*10547 FILLER_0_6_433
*10548 FILLER_0_6_445
*10549 FILLER_0_6_457
*10550 FILLER_0_6_469
*10551 FILLER_0_6_475
*10552 FILLER_0_6_477
*10553 FILLER_0_6_489
*10554 FILLER_0_6_501
*10555 FILLER_0_6_513
*10556 FILLER_0_6_525
*10557 FILLER_0_6_53
*10558 FILLER_0_6_531
*10559 FILLER_0_6_533
*10560 FILLER_0_6_545
*10561 FILLER_0_6_557
*10562 FILLER_0_6_569
*10563 FILLER_0_6_581
*10564 FILLER_0_6_587
*10565 FILLER_0_6_589
*10566 FILLER_0_6_601
*10567 FILLER_0_6_613
*10568 FILLER_0_6_625
*10569 FILLER_0_6_637
*10570 FILLER_0_6_643
*10571 FILLER_0_6_645
*10572 FILLER_0_6_65
*10573 FILLER_0_6_657
*10574 FILLER_0_6_669
*10575 FILLER_0_6_681
*10576 FILLER_0_6_693
*10577 FILLER_0_6_699
*10578 FILLER_0_6_701
*10579 FILLER_0_6_713
*10580 FILLER_0_6_725
*10581 FILLER_0_6_737
*10582 FILLER_0_6_749
*10583 FILLER_0_6_755
*10584 FILLER_0_6_757
*10585 FILLER_0_6_769
*10586 FILLER_0_6_77
*10587 FILLER_0_6_781
*10588 FILLER_0_6_793
*10589 FILLER_0_6_805
*10590 FILLER_0_6_811
*10591 FILLER_0_6_813
*10592 FILLER_0_6_825
*10593 FILLER_0_6_83
*10594 FILLER_0_6_837
*10595 FILLER_0_6_849
*10596 FILLER_0_6_85
*10597 FILLER_0_6_861
*10598 FILLER_0_6_867
*10599 FILLER_0_6_869
*10600 FILLER_0_6_881
*10601 FILLER_0_6_893
*10602 FILLER_0_6_905
*10603 FILLER_0_6_917
*10604 FILLER_0_6_923
*10605 FILLER_0_6_925
*10606 FILLER_0_6_937
*10607 FILLER_0_6_949
*10608 FILLER_0_6_961
*10609 FILLER_0_6_97
*10610 FILLER_0_6_973
*10611 FILLER_0_6_979
*10612 FILLER_0_6_981
*10613 FILLER_0_6_993
*10614 FILLER_0_70_10
*10615 FILLER_0_70_1201
*10616 FILLER_0_70_1213
*10617 FILLER_0_70_1225
*10618 FILLER_0_70_1227
*10619 FILLER_0_70_1239
*10620 FILLER_0_70_1251
*10621 FILLER_0_70_1263
*10622 FILLER_0_70_1275
*10623 FILLER_0_70_1281
*10624 FILLER_0_70_1283
*10625 FILLER_0_70_1295
*10626 FILLER_0_70_1307
*10627 FILLER_0_70_1319
*10628 FILLER_0_70_1331
*10629 FILLER_0_70_1337
*10630 FILLER_0_70_1339
*10631 FILLER_0_70_1343
*10632 FILLER_0_70_22
*10633 FILLER_0_70_29
*10634 FILLER_0_70_41
*10635 FILLER_0_70_49
*10636 FILLER_0_70_593
*10637 FILLER_0_70_6
*10638 FILLER_0_70_605
*10639 FILLER_0_70_617
*10640 FILLER_0_70_619
*10641 FILLER_0_70_631
*10642 FILLER_0_70_643
*10643 FILLER_0_70_655
*10644 FILLER_0_71_1201
*10645 FILLER_0_71_1213
*10646 FILLER_0_71_1225
*10647 FILLER_0_71_1237
*10648 FILLER_0_71_1249
*10649 FILLER_0_71_1253
*10650 FILLER_0_71_1255
*10651 FILLER_0_71_1267
*10652 FILLER_0_71_1279
*10653 FILLER_0_71_1291
*10654 FILLER_0_71_1303
*10655 FILLER_0_71_1309
*10656 FILLER_0_71_1311
*10657 FILLER_0_71_1323
*10658 FILLER_0_71_1335
*10659 FILLER_0_71_15
*10660 FILLER_0_71_27
*10661 FILLER_0_71_3
*10662 FILLER_0_71_39
*10663 FILLER_0_71_47
*10664 FILLER_0_71_593
*10665 FILLER_0_71_605
*10666 FILLER_0_71_617
*10667 FILLER_0_71_629
*10668 FILLER_0_71_641
*10669 FILLER_0_71_645
*10670 FILLER_0_71_647
*10671 FILLER_0_71_655
*10672 FILLER_0_72_1201
*10673 FILLER_0_72_1213
*10674 FILLER_0_72_1225
*10675 FILLER_0_72_1227
*10676 FILLER_0_72_1239
*10677 FILLER_0_72_1251
*10678 FILLER_0_72_1263
*10679 FILLER_0_72_1275
*10680 FILLER_0_72_1281
*10681 FILLER_0_72_1283
*10682 FILLER_0_72_1295
*10683 FILLER_0_72_1307
*10684 FILLER_0_72_1319
*10685 FILLER_0_72_1331
*10686 FILLER_0_72_1337
*10687 FILLER_0_72_1339
*10688 FILLER_0_72_1343
*10689 FILLER_0_72_15
*10690 FILLER_0_72_27
*10691 FILLER_0_72_29
*10692 FILLER_0_72_3
*10693 FILLER_0_72_41
*10694 FILLER_0_72_49
*10695 FILLER_0_72_593
*10696 FILLER_0_72_605
*10697 FILLER_0_72_617
*10698 FILLER_0_72_619
*10699 FILLER_0_72_631
*10700 FILLER_0_72_643
*10701 FILLER_0_72_655
*10702 FILLER_0_73_10
*10703 FILLER_0_73_1201
*10704 FILLER_0_73_1213
*10705 FILLER_0_73_1225
*10706 FILLER_0_73_1237
*10707 FILLER_0_73_1249
*10708 FILLER_0_73_1253
*10709 FILLER_0_73_1255
*10710 FILLER_0_73_1267
*10711 FILLER_0_73_1279
*10712 FILLER_0_73_1291
*10713 FILLER_0_73_1303
*10714 FILLER_0_73_1309
*10715 FILLER_0_73_1311
*10716 FILLER_0_73_1323
*10717 FILLER_0_73_1335
*10718 FILLER_0_73_1343
*10719 FILLER_0_73_22
*10720 FILLER_0_73_34
*10721 FILLER_0_73_46
*10722 FILLER_0_73_593
*10723 FILLER_0_73_6
*10724 FILLER_0_73_605
*10725 FILLER_0_73_617
*10726 FILLER_0_73_629
*10727 FILLER_0_73_641
*10728 FILLER_0_73_645
*10729 FILLER_0_73_647
*10730 FILLER_0_73_655
*10731 FILLER_0_74_1201
*10732 FILLER_0_74_1213
*10733 FILLER_0_74_1225
*10734 FILLER_0_74_1227
*10735 FILLER_0_74_1239
*10736 FILLER_0_74_1251
*10737 FILLER_0_74_1263
*10738 FILLER_0_74_1275
*10739 FILLER_0_74_1281
*10740 FILLER_0_74_1283
*10741 FILLER_0_74_1295
*10742 FILLER_0_74_1307
*10743 FILLER_0_74_1319
*10744 FILLER_0_74_1331
*10745 FILLER_0_74_1337
*10746 FILLER_0_74_1339
*10747 FILLER_0_74_1343
*10748 FILLER_0_74_15
*10749 FILLER_0_74_27
*10750 FILLER_0_74_29
*10751 FILLER_0_74_3
*10752 FILLER_0_74_41
*10753 FILLER_0_74_49
*10754 FILLER_0_74_593
*10755 FILLER_0_74_605
*10756 FILLER_0_74_617
*10757 FILLER_0_74_619
*10758 FILLER_0_74_631
*10759 FILLER_0_74_643
*10760 FILLER_0_74_655
*10761 FILLER_0_75_1201
*10762 FILLER_0_75_1213
*10763 FILLER_0_75_1225
*10764 FILLER_0_75_1237
*10765 FILLER_0_75_1249
*10766 FILLER_0_75_1253
*10767 FILLER_0_75_1255
*10768 FILLER_0_75_1267
*10769 FILLER_0_75_1279
*10770 FILLER_0_75_1291
*10771 FILLER_0_75_1303
*10772 FILLER_0_75_1309
*10773 FILLER_0_75_1311
*10774 FILLER_0_75_1323
*10775 FILLER_0_75_1335
*10776 FILLER_0_75_1343
*10777 FILLER_0_75_15
*10778 FILLER_0_75_27
*10779 FILLER_0_75_3
*10780 FILLER_0_75_39
*10781 FILLER_0_75_47
*10782 FILLER_0_75_593
*10783 FILLER_0_75_605
*10784 FILLER_0_75_617
*10785 FILLER_0_75_629
*10786 FILLER_0_75_641
*10787 FILLER_0_75_645
*10788 FILLER_0_75_647
*10789 FILLER_0_75_655
*10790 FILLER_0_76_1201
*10791 FILLER_0_76_1213
*10792 FILLER_0_76_1225
*10793 FILLER_0_76_1227
*10794 FILLER_0_76_1239
*10795 FILLER_0_76_1251
*10796 FILLER_0_76_1263
*10797 FILLER_0_76_1275
*10798 FILLER_0_76_1281
*10799 FILLER_0_76_1283
*10800 FILLER_0_76_1295
*10801 FILLER_0_76_1307
*10802 FILLER_0_76_1319
*10803 FILLER_0_76_1331
*10804 FILLER_0_76_1337
*10805 FILLER_0_76_1339
*10806 FILLER_0_76_1343
*10807 FILLER_0_76_15
*10808 FILLER_0_76_27
*10809 FILLER_0_76_29
*10810 FILLER_0_76_3
*10811 FILLER_0_76_41
*10812 FILLER_0_76_49
*10813 FILLER_0_76_593
*10814 FILLER_0_76_605
*10815 FILLER_0_76_617
*10816 FILLER_0_76_619
*10817 FILLER_0_76_631
*10818 FILLER_0_76_643
*10819 FILLER_0_76_655
*10820 FILLER_0_77_10
*10821 FILLER_0_77_1201
*10822 FILLER_0_77_1213
*10823 FILLER_0_77_1225
*10824 FILLER_0_77_1237
*10825 FILLER_0_77_1249
*10826 FILLER_0_77_1253
*10827 FILLER_0_77_1255
*10828 FILLER_0_77_1267
*10829 FILLER_0_77_1279
*10830 FILLER_0_77_1291
*10831 FILLER_0_77_1303
*10832 FILLER_0_77_1309
*10833 FILLER_0_77_1311
*10834 FILLER_0_77_1323
*10835 FILLER_0_77_1335
*10836 FILLER_0_77_22
*10837 FILLER_0_77_34
*10838 FILLER_0_77_46
*10839 FILLER_0_77_593
*10840 FILLER_0_77_6
*10841 FILLER_0_77_605
*10842 FILLER_0_77_617
*10843 FILLER_0_77_629
*10844 FILLER_0_77_641
*10845 FILLER_0_77_645
*10846 FILLER_0_77_647
*10847 FILLER_0_77_655
*10848 FILLER_0_78_1201
*10849 FILLER_0_78_1213
*10850 FILLER_0_78_1225
*10851 FILLER_0_78_1227
*10852 FILLER_0_78_1239
*10853 FILLER_0_78_1251
*10854 FILLER_0_78_1263
*10855 FILLER_0_78_1275
*10856 FILLER_0_78_1281
*10857 FILLER_0_78_1283
*10858 FILLER_0_78_1295
*10859 FILLER_0_78_1307
*10860 FILLER_0_78_1319
*10861 FILLER_0_78_1331
*10862 FILLER_0_78_1337
*10863 FILLER_0_78_1339
*10864 FILLER_0_78_1343
*10865 FILLER_0_78_15
*10866 FILLER_0_78_27
*10867 FILLER_0_78_29
*10868 FILLER_0_78_3
*10869 FILLER_0_78_41
*10870 FILLER_0_78_49
*10871 FILLER_0_78_593
*10872 FILLER_0_78_605
*10873 FILLER_0_78_617
*10874 FILLER_0_78_619
*10875 FILLER_0_78_631
*10876 FILLER_0_78_643
*10877 FILLER_0_78_655
*10878 FILLER_0_79_1201
*10879 FILLER_0_79_1213
*10880 FILLER_0_79_1225
*10881 FILLER_0_79_1237
*10882 FILLER_0_79_1249
*10883 FILLER_0_79_1253
*10884 FILLER_0_79_1255
*10885 FILLER_0_79_1267
*10886 FILLER_0_79_1279
*10887 FILLER_0_79_1291
*10888 FILLER_0_79_1303
*10889 FILLER_0_79_1309
*10890 FILLER_0_79_1311
*10891 FILLER_0_79_1323
*10892 FILLER_0_79_1335
*10893 FILLER_0_79_1343
*10894 FILLER_0_79_15
*10895 FILLER_0_79_27
*10896 FILLER_0_79_3
*10897 FILLER_0_79_39
*10898 FILLER_0_79_47
*10899 FILLER_0_79_593
*10900 FILLER_0_79_605
*10901 FILLER_0_79_617
*10902 FILLER_0_79_629
*10903 FILLER_0_79_641
*10904 FILLER_0_79_645
*10905 FILLER_0_79_647
*10906 FILLER_0_79_655
*10907 FILLER_0_7_1005
*10908 FILLER_0_7_1009
*10909 FILLER_0_7_1021
*10910 FILLER_0_7_1033
*10911 FILLER_0_7_1037
*10912 FILLER_0_7_1049
*10913 FILLER_0_7_1061
*10914 FILLER_0_7_1065
*10915 FILLER_0_7_1077
*10916 FILLER_0_7_1089
*10917 FILLER_0_7_109
*10918 FILLER_0_7_1093
*10919 FILLER_0_7_1105
*10920 FILLER_0_7_1117
*10921 FILLER_0_7_1121
*10922 FILLER_0_7_113
*10923 FILLER_0_7_1133
*10924 FILLER_0_7_1145
*10925 FILLER_0_7_1149
*10926 FILLER_0_7_1161
*10927 FILLER_0_7_1173
*10928 FILLER_0_7_1177
*10929 FILLER_0_7_1189
*10930 FILLER_0_7_1201
*10931 FILLER_0_7_1205
*10932 FILLER_0_7_1217
*10933 FILLER_0_7_1229
*10934 FILLER_0_7_1233
*10935 FILLER_0_7_1245
*10936 FILLER_0_7_125
*10937 FILLER_0_7_1257
*10938 FILLER_0_7_1261
*10939 FILLER_0_7_1273
*10940 FILLER_0_7_1285
*10941 FILLER_0_7_1289
*10942 FILLER_0_7_13
*10943 FILLER_0_7_1301
*10944 FILLER_0_7_1313
*10945 FILLER_0_7_1317
*10946 FILLER_0_7_1329
*10947 FILLER_0_7_1341
*10948 FILLER_0_7_137
*10949 FILLER_0_7_141
*10950 FILLER_0_7_153
*10951 FILLER_0_7_165
*10952 FILLER_0_7_169
*10953 FILLER_0_7_181
*10954 FILLER_0_7_193
*10955 FILLER_0_7_197
*10956 FILLER_0_7_209
*10957 FILLER_0_7_221
*10958 FILLER_0_7_225
*10959 FILLER_0_7_237
*10960 FILLER_0_7_249
*10961 FILLER_0_7_25
*10962 FILLER_0_7_253
*10963 FILLER_0_7_265
*10964 FILLER_0_7_277
*10965 FILLER_0_7_281
*10966 FILLER_0_7_29
*10967 FILLER_0_7_293
*10968 FILLER_0_7_305
*10969 FILLER_0_7_309
*10970 FILLER_0_7_321
*10971 FILLER_0_7_333
*10972 FILLER_0_7_337
*10973 FILLER_0_7_349
*10974 FILLER_0_7_361
*10975 FILLER_0_7_385
*10976 FILLER_0_7_389
*10977 FILLER_0_7_393
*10978 FILLER_0_7_405
*10979 FILLER_0_7_41
*10980 FILLER_0_7_417
*10981 FILLER_0_7_421
*10982 FILLER_0_7_433
*10983 FILLER_0_7_445
*10984 FILLER_0_7_449
*10985 FILLER_0_7_461
*10986 FILLER_0_7_473
*10987 FILLER_0_7_477
*10988 FILLER_0_7_489
*10989 FILLER_0_7_501
*10990 FILLER_0_7_505
*10991 FILLER_0_7_517
*10992 FILLER_0_7_529
*10993 FILLER_0_7_53
*10994 FILLER_0_7_533
*10995 FILLER_0_7_545
*10996 FILLER_0_7_557
*10997 FILLER_0_7_561
*10998 FILLER_0_7_57
*10999 FILLER_0_7_573
*11000 FILLER_0_7_585
*11001 FILLER_0_7_589
*11002 FILLER_0_7_601
*11003 FILLER_0_7_613
*11004 FILLER_0_7_617
*11005 FILLER_0_7_629
*11006 FILLER_0_7_641
*11007 FILLER_0_7_645
*11008 FILLER_0_7_657
*11009 FILLER_0_7_669
*11010 FILLER_0_7_673
*11011 FILLER_0_7_685
*11012 FILLER_0_7_69
*11013 FILLER_0_7_697
*11014 FILLER_0_7_701
*11015 FILLER_0_7_713
*11016 FILLER_0_7_725
*11017 FILLER_0_7_729
*11018 FILLER_0_7_741
*11019 FILLER_0_7_753
*11020 FILLER_0_7_757
*11021 FILLER_0_7_769
*11022 FILLER_0_7_781
*11023 FILLER_0_7_785
*11024 FILLER_0_7_797
*11025 FILLER_0_7_809
*11026 FILLER_0_7_81
*11027 FILLER_0_7_813
*11028 FILLER_0_7_825
*11029 FILLER_0_7_837
*11030 FILLER_0_7_841
*11031 FILLER_0_7_85
*11032 FILLER_0_7_853
*11033 FILLER_0_7_865
*11034 FILLER_0_7_869
*11035 FILLER_0_7_881
*11036 FILLER_0_7_893
*11037 FILLER_0_7_897
*11038 FILLER_0_7_9
*11039 FILLER_0_7_909
*11040 FILLER_0_7_921
*11041 FILLER_0_7_925
*11042 FILLER_0_7_937
*11043 FILLER_0_7_949
*11044 FILLER_0_7_953
*11045 FILLER_0_7_965
*11046 FILLER_0_7_97
*11047 FILLER_0_7_977
*11048 FILLER_0_7_981
*11049 FILLER_0_7_993
*11050 FILLER_0_80_10
*11051 FILLER_0_80_1201
*11052 FILLER_0_80_1213
*11053 FILLER_0_80_1225
*11054 FILLER_0_80_1227
*11055 FILLER_0_80_1239
*11056 FILLER_0_80_1251
*11057 FILLER_0_80_1263
*11058 FILLER_0_80_1275
*11059 FILLER_0_80_1281
*11060 FILLER_0_80_1283
*11061 FILLER_0_80_1295
*11062 FILLER_0_80_1307
*11063 FILLER_0_80_1319
*11064 FILLER_0_80_1331
*11065 FILLER_0_80_1337
*11066 FILLER_0_80_1339
*11067 FILLER_0_80_1343
*11068 FILLER_0_80_22
*11069 FILLER_0_80_29
*11070 FILLER_0_80_41
*11071 FILLER_0_80_49
*11072 FILLER_0_80_593
*11073 FILLER_0_80_6
*11074 FILLER_0_80_605
*11075 FILLER_0_80_617
*11076 FILLER_0_80_619
*11077 FILLER_0_80_631
*11078 FILLER_0_80_643
*11079 FILLER_0_80_655
*11080 FILLER_0_81_1201
*11081 FILLER_0_81_1213
*11082 FILLER_0_81_1225
*11083 FILLER_0_81_1237
*11084 FILLER_0_81_1249
*11085 FILLER_0_81_1253
*11086 FILLER_0_81_1255
*11087 FILLER_0_81_1267
*11088 FILLER_0_81_1279
*11089 FILLER_0_81_1291
*11090 FILLER_0_81_1303
*11091 FILLER_0_81_1309
*11092 FILLER_0_81_1311
*11093 FILLER_0_81_1323
*11094 FILLER_0_81_1335
*11095 FILLER_0_81_1343
*11096 FILLER_0_81_15
*11097 FILLER_0_81_27
*11098 FILLER_0_81_3
*11099 FILLER_0_81_39
*11100 FILLER_0_81_47
*11101 FILLER_0_81_593
*11102 FILLER_0_81_605
*11103 FILLER_0_81_617
*11104 FILLER_0_81_629
*11105 FILLER_0_81_641
*11106 FILLER_0_81_645
*11107 FILLER_0_81_647
*11108 FILLER_0_82_1201
*11109 FILLER_0_82_1213
*11110 FILLER_0_82_1225
*11111 FILLER_0_82_1227
*11112 FILLER_0_82_1239
*11113 FILLER_0_82_1251
*11114 FILLER_0_82_1263
*11115 FILLER_0_82_1275
*11116 FILLER_0_82_1281
*11117 FILLER_0_82_1283
*11118 FILLER_0_82_1295
*11119 FILLER_0_82_1307
*11120 FILLER_0_82_1319
*11121 FILLER_0_82_1331
*11122 FILLER_0_82_1337
*11123 FILLER_0_82_1339
*11124 FILLER_0_82_1343
*11125 FILLER_0_82_15
*11126 FILLER_0_82_27
*11127 FILLER_0_82_29
*11128 FILLER_0_82_3
*11129 FILLER_0_82_41
*11130 FILLER_0_82_49
*11131 FILLER_0_82_593
*11132 FILLER_0_82_605
*11133 FILLER_0_82_617
*11134 FILLER_0_82_619
*11135 FILLER_0_82_631
*11136 FILLER_0_82_643
*11137 FILLER_0_82_655
*11138 FILLER_0_83_1201
*11139 FILLER_0_83_1213
*11140 FILLER_0_83_1225
*11141 FILLER_0_83_1237
*11142 FILLER_0_83_1249
*11143 FILLER_0_83_1253
*11144 FILLER_0_83_1255
*11145 FILLER_0_83_1267
*11146 FILLER_0_83_1279
*11147 FILLER_0_83_1291
*11148 FILLER_0_83_1303
*11149 FILLER_0_83_1309
*11150 FILLER_0_83_1311
*11151 FILLER_0_83_1323
*11152 FILLER_0_83_1335
*11153 FILLER_0_83_15
*11154 FILLER_0_83_27
*11155 FILLER_0_83_3
*11156 FILLER_0_83_39
*11157 FILLER_0_83_47
*11158 FILLER_0_83_593
*11159 FILLER_0_83_605
*11160 FILLER_0_83_617
*11161 FILLER_0_83_629
*11162 FILLER_0_83_641
*11163 FILLER_0_83_645
*11164 FILLER_0_83_647
*11165 FILLER_0_84_10
*11166 FILLER_0_84_1201
*11167 FILLER_0_84_1213
*11168 FILLER_0_84_1225
*11169 FILLER_0_84_1227
*11170 FILLER_0_84_1239
*11171 FILLER_0_84_1251
*11172 FILLER_0_84_1263
*11173 FILLER_0_84_1275
*11174 FILLER_0_84_1281
*11175 FILLER_0_84_1283
*11176 FILLER_0_84_1295
*11177 FILLER_0_84_1307
*11178 FILLER_0_84_1319
*11179 FILLER_0_84_1331
*11180 FILLER_0_84_1337
*11181 FILLER_0_84_1339
*11182 FILLER_0_84_1343
*11183 FILLER_0_84_22
*11184 FILLER_0_84_29
*11185 FILLER_0_84_41
*11186 FILLER_0_84_49
*11187 FILLER_0_84_593
*11188 FILLER_0_84_6
*11189 FILLER_0_84_605
*11190 FILLER_0_84_617
*11191 FILLER_0_84_619
*11192 FILLER_0_84_631
*11193 FILLER_0_84_643
*11194 FILLER_0_84_655
*11195 FILLER_0_85_1201
*11196 FILLER_0_85_1213
*11197 FILLER_0_85_1225
*11198 FILLER_0_85_1237
*11199 FILLER_0_85_1249
*11200 FILLER_0_85_1253
*11201 FILLER_0_85_1255
*11202 FILLER_0_85_1267
*11203 FILLER_0_85_1279
*11204 FILLER_0_85_1291
*11205 FILLER_0_85_1303
*11206 FILLER_0_85_1309
*11207 FILLER_0_85_1311
*11208 FILLER_0_85_1323
*11209 FILLER_0_85_1335
*11210 FILLER_0_85_1343
*11211 FILLER_0_85_15
*11212 FILLER_0_85_27
*11213 FILLER_0_85_3
*11214 FILLER_0_85_39
*11215 FILLER_0_85_47
*11216 FILLER_0_85_593
*11217 FILLER_0_85_605
*11218 FILLER_0_85_617
*11219 FILLER_0_85_629
*11220 FILLER_0_85_641
*11221 FILLER_0_85_645
*11222 FILLER_0_85_647
*11223 FILLER_0_86_1201
*11224 FILLER_0_86_1213
*11225 FILLER_0_86_1225
*11226 FILLER_0_86_1227
*11227 FILLER_0_86_1239
*11228 FILLER_0_86_1251
*11229 FILLER_0_86_1263
*11230 FILLER_0_86_1275
*11231 FILLER_0_86_1281
*11232 FILLER_0_86_1283
*11233 FILLER_0_86_1295
*11234 FILLER_0_86_1307
*11235 FILLER_0_86_1319
*11236 FILLER_0_86_1331
*11237 FILLER_0_86_1337
*11238 FILLER_0_86_1339
*11239 FILLER_0_86_1343
*11240 FILLER_0_86_15
*11241 FILLER_0_86_27
*11242 FILLER_0_86_29
*11243 FILLER_0_86_3
*11244 FILLER_0_86_41
*11245 FILLER_0_86_49
*11246 FILLER_0_86_593
*11247 FILLER_0_86_605
*11248 FILLER_0_86_617
*11249 FILLER_0_86_619
*11250 FILLER_0_86_631
*11251 FILLER_0_86_643
*11252 FILLER_0_86_655
*11253 FILLER_0_87_10
*11254 FILLER_0_87_1201
*11255 FILLER_0_87_1213
*11256 FILLER_0_87_1225
*11257 FILLER_0_87_1237
*11258 FILLER_0_87_1249
*11259 FILLER_0_87_1253
*11260 FILLER_0_87_1255
*11261 FILLER_0_87_1267
*11262 FILLER_0_87_1279
*11263 FILLER_0_87_1291
*11264 FILLER_0_87_1303
*11265 FILLER_0_87_1309
*11266 FILLER_0_87_1311
*11267 FILLER_0_87_1323
*11268 FILLER_0_87_1335
*11269 FILLER_0_87_1343
*11270 FILLER_0_87_22
*11271 FILLER_0_87_34
*11272 FILLER_0_87_46
*11273 FILLER_0_87_593
*11274 FILLER_0_87_6
*11275 FILLER_0_87_605
*11276 FILLER_0_87_617
*11277 FILLER_0_87_629
*11278 FILLER_0_87_641
*11279 FILLER_0_87_645
*11280 FILLER_0_87_647
*11281 FILLER_0_88_1201
*11282 FILLER_0_88_1213
*11283 FILLER_0_88_1225
*11284 FILLER_0_88_1227
*11285 FILLER_0_88_1239
*11286 FILLER_0_88_1251
*11287 FILLER_0_88_1263
*11288 FILLER_0_88_1275
*11289 FILLER_0_88_1281
*11290 FILLER_0_88_1283
*11291 FILLER_0_88_1295
*11292 FILLER_0_88_1307
*11293 FILLER_0_88_1319
*11294 FILLER_0_88_1331
*11295 FILLER_0_88_1337
*11296 FILLER_0_88_1339
*11297 FILLER_0_88_1343
*11298 FILLER_0_88_15
*11299 FILLER_0_88_27
*11300 FILLER_0_88_29
*11301 FILLER_0_88_3
*11302 FILLER_0_88_41
*11303 FILLER_0_88_49
*11304 FILLER_0_88_593
*11305 FILLER_0_88_605
*11306 FILLER_0_88_617
*11307 FILLER_0_88_619
*11308 FILLER_0_88_631
*11309 FILLER_0_88_643
*11310 FILLER_0_88_655
*11311 FILLER_0_89_1201
*11312 FILLER_0_89_1213
*11313 FILLER_0_89_1225
*11314 FILLER_0_89_1237
*11315 FILLER_0_89_1249
*11316 FILLER_0_89_1253
*11317 FILLER_0_89_1255
*11318 FILLER_0_89_1267
*11319 FILLER_0_89_1279
*11320 FILLER_0_89_1291
*11321 FILLER_0_89_1303
*11322 FILLER_0_89_1309
*11323 FILLER_0_89_1311
*11324 FILLER_0_89_1323
*11325 FILLER_0_89_1335
*11326 FILLER_0_89_15
*11327 FILLER_0_89_27
*11328 FILLER_0_89_3
*11329 FILLER_0_89_39
*11330 FILLER_0_89_47
*11331 FILLER_0_89_593
*11332 FILLER_0_89_605
*11333 FILLER_0_89_617
*11334 FILLER_0_89_629
*11335 FILLER_0_89_641
*11336 FILLER_0_89_645
*11337 FILLER_0_89_647
*11338 FILLER_0_8_1201
*11339 FILLER_0_8_1213
*11340 FILLER_0_8_1225
*11341 FILLER_0_8_1227
*11342 FILLER_0_8_1239
*11343 FILLER_0_8_1251
*11344 FILLER_0_8_1263
*11345 FILLER_0_8_1275
*11346 FILLER_0_8_1281
*11347 FILLER_0_8_1283
*11348 FILLER_0_8_1295
*11349 FILLER_0_8_1307
*11350 FILLER_0_8_1319
*11351 FILLER_0_8_1331
*11352 FILLER_0_8_1337
*11353 FILLER_0_8_1339
*11354 FILLER_0_8_1343
*11355 FILLER_0_8_15
*11356 FILLER_0_8_27
*11357 FILLER_0_8_29
*11358 FILLER_0_8_3
*11359 FILLER_0_8_41
*11360 FILLER_0_8_49
*11361 FILLER_0_8_593
*11362 FILLER_0_8_605
*11363 FILLER_0_8_617
*11364 FILLER_0_8_619
*11365 FILLER_0_8_631
*11366 FILLER_0_8_643
*11367 FILLER_0_8_655
*11368 FILLER_0_90_1201
*11369 FILLER_0_90_1213
*11370 FILLER_0_90_1225
*11371 FILLER_0_90_1227
*11372 FILLER_0_90_1239
*11373 FILLER_0_90_1251
*11374 FILLER_0_90_1263
*11375 FILLER_0_90_1275
*11376 FILLER_0_90_1281
*11377 FILLER_0_90_1283
*11378 FILLER_0_90_1295
*11379 FILLER_0_90_1307
*11380 FILLER_0_90_1319
*11381 FILLER_0_90_1331
*11382 FILLER_0_90_1337
*11383 FILLER_0_90_1339
*11384 FILLER_0_90_1343
*11385 FILLER_0_90_15
*11386 FILLER_0_90_27
*11387 FILLER_0_90_29
*11388 FILLER_0_90_3
*11389 FILLER_0_90_41
*11390 FILLER_0_90_49
*11391 FILLER_0_90_593
*11392 FILLER_0_90_605
*11393 FILLER_0_90_617
*11394 FILLER_0_90_619
*11395 FILLER_0_90_631
*11396 FILLER_0_90_643
*11397 FILLER_0_90_655
*11398 FILLER_0_91_10
*11399 FILLER_0_91_1201
*11400 FILLER_0_91_1213
*11401 FILLER_0_91_1225
*11402 FILLER_0_91_1237
*11403 FILLER_0_91_1249
*11404 FILLER_0_91_1253
*11405 FILLER_0_91_1255
*11406 FILLER_0_91_1267
*11407 FILLER_0_91_1279
*11408 FILLER_0_91_1291
*11409 FILLER_0_91_1303
*11410 FILLER_0_91_1309
*11411 FILLER_0_91_1311
*11412 FILLER_0_91_1323
*11413 FILLER_0_91_1335
*11414 FILLER_0_91_1343
*11415 FILLER_0_91_22
*11416 FILLER_0_91_34
*11417 FILLER_0_91_46
*11418 FILLER_0_91_593
*11419 FILLER_0_91_6
*11420 FILLER_0_91_605
*11421 FILLER_0_91_617
*11422 FILLER_0_91_629
*11423 FILLER_0_91_641
*11424 FILLER_0_91_645
*11425 FILLER_0_91_647
*11426 FILLER_0_92_1201
*11427 FILLER_0_92_1213
*11428 FILLER_0_92_1225
*11429 FILLER_0_92_1227
*11430 FILLER_0_92_1239
*11431 FILLER_0_92_1251
*11432 FILLER_0_92_1263
*11433 FILLER_0_92_1275
*11434 FILLER_0_92_1281
*11435 FILLER_0_92_1283
*11436 FILLER_0_92_1295
*11437 FILLER_0_92_1307
*11438 FILLER_0_92_1319
*11439 FILLER_0_92_1331
*11440 FILLER_0_92_1337
*11441 FILLER_0_92_1339
*11442 FILLER_0_92_1343
*11443 FILLER_0_92_15
*11444 FILLER_0_92_27
*11445 FILLER_0_92_29
*11446 FILLER_0_92_3
*11447 FILLER_0_92_41
*11448 FILLER_0_92_49
*11449 FILLER_0_92_593
*11450 FILLER_0_92_605
*11451 FILLER_0_92_617
*11452 FILLER_0_92_619
*11453 FILLER_0_92_631
*11454 FILLER_0_92_643
*11455 FILLER_0_92_655
*11456 FILLER_0_93_1201
*11457 FILLER_0_93_1213
*11458 FILLER_0_93_1225
*11459 FILLER_0_93_1237
*11460 FILLER_0_93_1249
*11461 FILLER_0_93_1253
*11462 FILLER_0_93_1255
*11463 FILLER_0_93_1267
*11464 FILLER_0_93_1279
*11465 FILLER_0_93_1291
*11466 FILLER_0_93_1303
*11467 FILLER_0_93_1309
*11468 FILLER_0_93_1311
*11469 FILLER_0_93_1323
*11470 FILLER_0_93_1335
*11471 FILLER_0_93_1343
*11472 FILLER_0_93_15
*11473 FILLER_0_93_27
*11474 FILLER_0_93_3
*11475 FILLER_0_93_39
*11476 FILLER_0_93_47
*11477 FILLER_0_93_593
*11478 FILLER_0_93_605
*11479 FILLER_0_93_617
*11480 FILLER_0_93_629
*11481 FILLER_0_93_641
*11482 FILLER_0_93_645
*11483 FILLER_0_93_647
*11484 FILLER_0_94_10
*11485 FILLER_0_94_1201
*11486 FILLER_0_94_1213
*11487 FILLER_0_94_1225
*11488 FILLER_0_94_1227
*11489 FILLER_0_94_1239
*11490 FILLER_0_94_1251
*11491 FILLER_0_94_1263
*11492 FILLER_0_94_1275
*11493 FILLER_0_94_1281
*11494 FILLER_0_94_1283
*11495 FILLER_0_94_1295
*11496 FILLER_0_94_1307
*11497 FILLER_0_94_1319
*11498 FILLER_0_94_1331
*11499 FILLER_0_94_1337
*11500 FILLER_0_94_1339
*11501 FILLER_0_94_1343
*11502 FILLER_0_94_22
*11503 FILLER_0_94_29
*11504 FILLER_0_94_41
*11505 FILLER_0_94_49
*11506 FILLER_0_94_593
*11507 FILLER_0_94_6
*11508 FILLER_0_94_605
*11509 FILLER_0_94_617
*11510 FILLER_0_94_619
*11511 FILLER_0_94_631
*11512 FILLER_0_94_643
*11513 FILLER_0_94_655
*11514 FILLER_0_95_1201
*11515 FILLER_0_95_1213
*11516 FILLER_0_95_1225
*11517 FILLER_0_95_1237
*11518 FILLER_0_95_1249
*11519 FILLER_0_95_1253
*11520 FILLER_0_95_1255
*11521 FILLER_0_95_1267
*11522 FILLER_0_95_1279
*11523 FILLER_0_95_1291
*11524 FILLER_0_95_1303
*11525 FILLER_0_95_1309
*11526 FILLER_0_95_1311
*11527 FILLER_0_95_1323
*11528 FILLER_0_95_1335
*11529 FILLER_0_95_15
*11530 FILLER_0_95_27
*11531 FILLER_0_95_3
*11532 FILLER_0_95_39
*11533 FILLER_0_95_47
*11534 FILLER_0_95_593
*11535 FILLER_0_95_605
*11536 FILLER_0_95_617
*11537 FILLER_0_95_629
*11538 FILLER_0_95_641
*11539 FILLER_0_95_645
*11540 FILLER_0_95_647
*11541 FILLER_0_96_1201
*11542 FILLER_0_96_1213
*11543 FILLER_0_96_1225
*11544 FILLER_0_96_1227
*11545 FILLER_0_96_1239
*11546 FILLER_0_96_1251
*11547 FILLER_0_96_1263
*11548 FILLER_0_96_1275
*11549 FILLER_0_96_1281
*11550 FILLER_0_96_1283
*11551 FILLER_0_96_1295
*11552 FILLER_0_96_1307
*11553 FILLER_0_96_1319
*11554 FILLER_0_96_1331
*11555 FILLER_0_96_1337
*11556 FILLER_0_96_1339
*11557 FILLER_0_96_1343
*11558 FILLER_0_96_15
*11559 FILLER_0_96_27
*11560 FILLER_0_96_29
*11561 FILLER_0_96_3
*11562 FILLER_0_96_41
*11563 FILLER_0_96_49
*11564 FILLER_0_96_593
*11565 FILLER_0_96_605
*11566 FILLER_0_96_617
*11567 FILLER_0_96_619
*11568 FILLER_0_96_631
*11569 FILLER_0_96_643
*11570 FILLER_0_96_655
*11571 FILLER_0_97_1201
*11572 FILLER_0_97_1213
*11573 FILLER_0_97_1225
*11574 FILLER_0_97_1237
*11575 FILLER_0_97_1249
*11576 FILLER_0_97_1253
*11577 FILLER_0_97_1255
*11578 FILLER_0_97_1267
*11579 FILLER_0_97_1279
*11580 FILLER_0_97_1291
*11581 FILLER_0_97_1303
*11582 FILLER_0_97_1309
*11583 FILLER_0_97_1311
*11584 FILLER_0_97_1323
*11585 FILLER_0_97_1335
*11586 FILLER_0_97_1343
*11587 FILLER_0_97_15
*11588 FILLER_0_97_27
*11589 FILLER_0_97_3
*11590 FILLER_0_97_39
*11591 FILLER_0_97_47
*11592 FILLER_0_97_593
*11593 FILLER_0_97_605
*11594 FILLER_0_97_617
*11595 FILLER_0_97_629
*11596 FILLER_0_97_641
*11597 FILLER_0_97_645
*11598 FILLER_0_97_647
*11599 FILLER_0_98_10
*11600 FILLER_0_98_1201
*11601 FILLER_0_98_1213
*11602 FILLER_0_98_1225
*11603 FILLER_0_98_1227
*11604 FILLER_0_98_1239
*11605 FILLER_0_98_1251
*11606 FILLER_0_98_1263
*11607 FILLER_0_98_1275
*11608 FILLER_0_98_1281
*11609 FILLER_0_98_1283
*11610 FILLER_0_98_1295
*11611 FILLER_0_98_1307
*11612 FILLER_0_98_1319
*11613 FILLER_0_98_1331
*11614 FILLER_0_98_1337
*11615 FILLER_0_98_1339
*11616 FILLER_0_98_1343
*11617 FILLER_0_98_22
*11618 FILLER_0_98_29
*11619 FILLER_0_98_41
*11620 FILLER_0_98_49
*11621 FILLER_0_98_593
*11622 FILLER_0_98_6
*11623 FILLER_0_98_605
*11624 FILLER_0_98_617
*11625 FILLER_0_98_619
*11626 FILLER_0_98_631
*11627 FILLER_0_98_643
*11628 FILLER_0_98_655
*11629 FILLER_0_99_1201
*11630 FILLER_0_99_1213
*11631 FILLER_0_99_1225
*11632 FILLER_0_99_1237
*11633 FILLER_0_99_1249
*11634 FILLER_0_99_1253
*11635 FILLER_0_99_1255
*11636 FILLER_0_99_1267
*11637 FILLER_0_99_1279
*11638 FILLER_0_99_1291
*11639 FILLER_0_99_1303
*11640 FILLER_0_99_1309
*11641 FILLER_0_99_1311
*11642 FILLER_0_99_1323
*11643 FILLER_0_99_1335
*11644 FILLER_0_99_1343
*11645 FILLER_0_99_15
*11646 FILLER_0_99_27
*11647 FILLER_0_99_3
*11648 FILLER_0_99_39
*11649 FILLER_0_99_47
*11650 FILLER_0_99_593
*11651 FILLER_0_99_605
*11652 FILLER_0_99_617
*11653 FILLER_0_99_629
*11654 FILLER_0_99_641
*11655 FILLER_0_99_645
*11656 FILLER_0_99_647
*11657 FILLER_0_9_1201
*11658 FILLER_0_9_1213
*11659 FILLER_0_9_1225
*11660 FILLER_0_9_1237
*11661 FILLER_0_9_1249
*11662 FILLER_0_9_1253
*11663 FILLER_0_9_1255
*11664 FILLER_0_9_1267
*11665 FILLER_0_9_1279
*11666 FILLER_0_9_1291
*11667 FILLER_0_9_1303
*11668 FILLER_0_9_1309
*11669 FILLER_0_9_1311
*11670 FILLER_0_9_1323
*11671 FILLER_0_9_1335
*11672 FILLER_0_9_1343
*11673 FILLER_0_9_15
*11674 FILLER_0_9_27
*11675 FILLER_0_9_3
*11676 FILLER_0_9_39
*11677 FILLER_0_9_47
*11678 FILLER_0_9_593
*11679 FILLER_0_9_605
*11680 FILLER_0_9_617
*11681 FILLER_0_9_629
*11682 FILLER_0_9_641
*11683 FILLER_0_9_645
*11684 FILLER_0_9_647
*11685 PHY_0
*11686 PHY_1
*11687 PHY_10
*11688 PHY_100
*11689 PHY_1000
*11690 PHY_1001
*11691 PHY_1002
*11692 PHY_1003
*11693 PHY_1004
*11694 PHY_1005
*11695 PHY_1006
*11696 PHY_1007
*11697 PHY_1008
*11698 PHY_1009
*11699 PHY_101
*11700 PHY_1010
*11701 PHY_1011
*11702 PHY_1012
*11703 PHY_1013
*11704 PHY_1014
*11705 PHY_1015
*11706 PHY_1016
*11707 PHY_1017
*11708 PHY_1018
*11709 PHY_1019
*11710 PHY_102
*11711 PHY_1020
*11712 PHY_1021
*11713 PHY_1022
*11714 PHY_1023
*11715 PHY_1024
*11716 PHY_1025
*11717 PHY_1026
*11718 PHY_1027
*11719 PHY_1028
*11720 PHY_1029
*11721 PHY_103
*11722 PHY_1030
*11723 PHY_1031
*11724 PHY_1032
*11725 PHY_1033
*11726 PHY_1034
*11727 PHY_1035
*11728 PHY_1036
*11729 PHY_1037
*11730 PHY_1038
*11731 PHY_1039
*11732 PHY_104
*11733 PHY_1040
*11734 PHY_1041
*11735 PHY_1042
*11736 PHY_1043
*11737 PHY_1044
*11738 PHY_1045
*11739 PHY_1046
*11740 PHY_1047
*11741 PHY_1048
*11742 PHY_1049
*11743 PHY_105
*11744 PHY_1050
*11745 PHY_1051
*11746 PHY_1052
*11747 PHY_1053
*11748 PHY_1054
*11749 PHY_1055
*11750 PHY_1056
*11751 PHY_1057
*11752 PHY_1058
*11753 PHY_1059
*11754 PHY_106
*11755 PHY_1060
*11756 PHY_1061
*11757 PHY_1062
*11758 PHY_1063
*11759 PHY_1064
*11760 PHY_1065
*11761 PHY_1066
*11762 PHY_1067
*11763 PHY_1068
*11764 PHY_1069
*11765 PHY_107
*11766 PHY_1070
*11767 PHY_1071
*11768 PHY_1072
*11769 PHY_1073
*11770 PHY_1074
*11771 PHY_1075
*11772 PHY_1076
*11773 PHY_1077
*11774 PHY_1078
*11775 PHY_1079
*11776 PHY_108
*11777 PHY_1080
*11778 PHY_1081
*11779 PHY_1082
*11780 PHY_1083
*11781 PHY_1084
*11782 PHY_1085
*11783 PHY_1086
*11784 PHY_1087
*11785 PHY_1088
*11786 PHY_1089
*11787 PHY_109
*11788 PHY_1090
*11789 PHY_1091
*11790 PHY_1092
*11791 PHY_1093
*11792 PHY_1094
*11793 PHY_1095
*11794 PHY_1096
*11795 PHY_1097
*11796 PHY_1098
*11797 PHY_1099
*11798 PHY_11
*11799 PHY_110
*11800 PHY_1100
*11801 PHY_1101
*11802 PHY_1102
*11803 PHY_1103
*11804 PHY_1104
*11805 PHY_1105
*11806 PHY_1106
*11807 PHY_1107
*11808 PHY_1108
*11809 PHY_1109
*11810 PHY_111
*11811 PHY_1110
*11812 PHY_1111
*11813 PHY_1112
*11814 PHY_1113
*11815 PHY_1114
*11816 PHY_1115
*11817 PHY_1116
*11818 PHY_1117
*11819 PHY_1118
*11820 PHY_1119
*11821 PHY_112
*11822 PHY_1120
*11823 PHY_1121
*11824 PHY_1122
*11825 PHY_1123
*11826 PHY_1124
*11827 PHY_1125
*11828 PHY_1126
*11829 PHY_1127
*11830 PHY_1128
*11831 PHY_1129
*11832 PHY_113
*11833 PHY_1130
*11834 PHY_1131
*11835 PHY_1132
*11836 PHY_1133
*11837 PHY_1134
*11838 PHY_1135
*11839 PHY_1136
*11840 PHY_1137
*11841 PHY_1138
*11842 PHY_1139
*11843 PHY_114
*11844 PHY_1140
*11845 PHY_1141
*11846 PHY_1142
*11847 PHY_1143
*11848 PHY_1144
*11849 PHY_1145
*11850 PHY_1146
*11851 PHY_1147
*11852 PHY_1148
*11853 PHY_1149
*11854 PHY_115
*11855 PHY_1150
*11856 PHY_1151
*11857 PHY_1152
*11858 PHY_1153
*11859 PHY_1154
*11860 PHY_1155
*11861 PHY_1156
*11862 PHY_1157
*11863 PHY_1158
*11864 PHY_1159
*11865 PHY_116
*11866 PHY_1160
*11867 PHY_1161
*11868 PHY_1162
*11869 PHY_1163
*11870 PHY_1164
*11871 PHY_1165
*11872 PHY_1166
*11873 PHY_1167
*11874 PHY_1168
*11875 PHY_1169
*11876 PHY_117
*11877 PHY_1170
*11878 PHY_1171
*11879 PHY_1172
*11880 PHY_1173
*11881 PHY_1174
*11882 PHY_1175
*11883 PHY_1176
*11884 PHY_1177
*11885 PHY_1178
*11886 PHY_1179
*11887 PHY_118
*11888 PHY_1180
*11889 PHY_1181
*11890 PHY_1182
*11891 PHY_1183
*11892 PHY_1184
*11893 PHY_1185
*11894 PHY_1186
*11895 PHY_1187
*11896 PHY_1188
*11897 PHY_1189
*11898 PHY_119
*11899 PHY_1190
*11900 PHY_1191
*11901 PHY_1192
*11902 PHY_1193
*11903 PHY_1194
*11904 PHY_1195
*11905 PHY_1196
*11906 PHY_1197
*11907 PHY_1198
*11908 PHY_1199
*11909 PHY_12
*11910 PHY_120
*11911 PHY_1200
*11912 PHY_1201
*11913 PHY_1202
*11914 PHY_1203
*11915 PHY_1204
*11916 PHY_1205
*11917 PHY_1206
*11918 PHY_1207
*11919 PHY_1208
*11920 PHY_1209
*11921 PHY_121
*11922 PHY_1210
*11923 PHY_1211
*11924 PHY_1212
*11925 PHY_1213
*11926 PHY_1214
*11927 PHY_1215
*11928 PHY_1216
*11929 PHY_1217
*11930 PHY_122
*11931 PHY_123
*11932 PHY_124
*11933 PHY_125
*11934 PHY_126
*11935 PHY_127
*11936 PHY_128
*11937 PHY_129
*11938 PHY_13
*11939 PHY_130
*11940 PHY_131
*11941 PHY_132
*11942 PHY_133
*11943 PHY_134
*11944 PHY_135
*11945 PHY_136
*11946 PHY_137
*11947 PHY_138
*11948 PHY_139
*11949 PHY_14
*11950 PHY_140
*11951 PHY_141
*11952 PHY_142
*11953 PHY_143
*11954 PHY_144
*11955 PHY_145
*11956 PHY_146
*11957 PHY_147
*11958 PHY_148
*11959 PHY_149
*11960 PHY_15
*11961 PHY_150
*11962 PHY_151
*11963 PHY_152
*11964 PHY_153
*11965 PHY_154
*11966 PHY_155
*11967 PHY_156
*11968 PHY_157
*11969 PHY_158
*11970 PHY_159
*11971 PHY_16
*11972 PHY_160
*11973 PHY_161
*11974 PHY_162
*11975 PHY_163
*11976 PHY_164
*11977 PHY_165
*11978 PHY_166
*11979 PHY_167
*11980 PHY_168
*11981 PHY_169
*11982 PHY_17
*11983 PHY_170
*11984 PHY_171
*11985 PHY_172
*11986 PHY_173
*11987 PHY_174
*11988 PHY_175
*11989 PHY_176
*11990 PHY_177
*11991 PHY_178
*11992 PHY_179
*11993 PHY_18
*11994 PHY_180
*11995 PHY_181
*11996 PHY_182
*11997 PHY_183
*11998 PHY_184
*11999 PHY_185
*12000 PHY_186
*12001 PHY_187
*12002 PHY_188
*12003 PHY_189
*12004 PHY_19
*12005 PHY_190
*12006 PHY_191
*12007 PHY_192
*12008 PHY_193
*12009 PHY_194
*12010 PHY_195
*12011 PHY_196
*12012 PHY_197
*12013 PHY_198
*12014 PHY_199
*12015 PHY_2
*12016 PHY_20
*12017 PHY_200
*12018 PHY_201
*12019 PHY_202
*12020 PHY_203
*12021 PHY_204
*12022 PHY_205
*12023 PHY_206
*12024 PHY_207
*12025 PHY_208
*12026 PHY_209
*12027 PHY_21
*12028 PHY_210
*12029 PHY_211
*12030 PHY_212
*12031 PHY_213
*12032 PHY_214
*12033 PHY_215
*12034 PHY_216
*12035 PHY_217
*12036 PHY_218
*12037 PHY_219
*12038 PHY_22
*12039 PHY_220
*12040 PHY_221
*12041 PHY_222
*12042 PHY_223
*12043 PHY_224
*12044 PHY_225
*12045 PHY_226
*12046 PHY_227
*12047 PHY_228
*12048 PHY_229
*12049 PHY_23
*12050 PHY_230
*12051 PHY_231
*12052 PHY_232
*12053 PHY_233
*12054 PHY_234
*12055 PHY_235
*12056 PHY_236
*12057 PHY_237
*12058 PHY_238
*12059 PHY_239
*12060 PHY_24
*12061 PHY_240
*12062 PHY_241
*12063 PHY_242
*12064 PHY_243
*12065 PHY_244
*12066 PHY_245
*12067 PHY_246
*12068 PHY_247
*12069 PHY_248
*12070 PHY_249
*12071 PHY_25
*12072 PHY_250
*12073 PHY_251
*12074 PHY_252
*12075 PHY_253
*12076 PHY_254
*12077 PHY_255
*12078 PHY_256
*12079 PHY_257
*12080 PHY_258
*12081 PHY_259
*12082 PHY_26
*12083 PHY_260
*12084 PHY_261
*12085 PHY_262
*12086 PHY_263
*12087 PHY_264
*12088 PHY_265
*12089 PHY_266
*12090 PHY_267
*12091 PHY_268
*12092 PHY_269
*12093 PHY_27
*12094 PHY_270
*12095 PHY_271
*12096 PHY_272
*12097 PHY_273
*12098 PHY_274
*12099 PHY_275
*12100 PHY_276
*12101 PHY_277
*12102 PHY_278
*12103 PHY_279
*12104 PHY_28
*12105 PHY_280
*12106 PHY_281
*12107 PHY_282
*12108 PHY_283
*12109 PHY_284
*12110 PHY_285
*12111 PHY_286
*12112 PHY_287
*12113 PHY_288
*12114 PHY_289
*12115 PHY_29
*12116 PHY_290
*12117 PHY_291
*12118 PHY_292
*12119 PHY_293
*12120 PHY_294
*12121 PHY_295
*12122 PHY_296
*12123 PHY_297
*12124 PHY_298
*12125 PHY_299
*12126 PHY_3
*12127 PHY_30
*12128 PHY_300
*12129 PHY_301
*12130 PHY_302
*12131 PHY_303
*12132 PHY_304
*12133 PHY_305
*12134 PHY_306
*12135 PHY_307
*12136 PHY_308
*12137 PHY_309
*12138 PHY_31
*12139 PHY_310
*12140 PHY_311
*12141 PHY_312
*12142 PHY_313
*12143 PHY_314
*12144 PHY_315
*12145 PHY_316
*12146 PHY_317
*12147 PHY_318
*12148 PHY_319
*12149 PHY_32
*12150 PHY_320
*12151 PHY_321
*12152 PHY_322
*12153 PHY_323
*12154 PHY_324
*12155 PHY_325
*12156 PHY_326
*12157 PHY_327
*12158 PHY_328
*12159 PHY_329
*12160 PHY_33
*12161 PHY_330
*12162 PHY_331
*12163 PHY_332
*12164 PHY_333
*12165 PHY_334
*12166 PHY_335
*12167 PHY_336
*12168 PHY_337
*12169 PHY_338
*12170 PHY_339
*12171 PHY_34
*12172 PHY_340
*12173 PHY_341
*12174 PHY_342
*12175 PHY_343
*12176 PHY_344
*12177 PHY_345
*12178 PHY_346
*12179 PHY_347
*12180 PHY_348
*12181 PHY_349
*12182 PHY_35
*12183 PHY_350
*12184 PHY_351
*12185 PHY_352
*12186 PHY_353
*12187 PHY_354
*12188 PHY_355
*12189 PHY_356
*12190 PHY_357
*12191 PHY_358
*12192 PHY_359
*12193 PHY_36
*12194 PHY_360
*12195 PHY_361
*12196 PHY_362
*12197 PHY_363
*12198 PHY_364
*12199 PHY_365
*12200 PHY_366
*12201 PHY_367
*12202 PHY_368
*12203 PHY_369
*12204 PHY_37
*12205 PHY_370
*12206 PHY_371
*12207 PHY_372
*12208 PHY_373
*12209 PHY_374
*12210 PHY_375
*12211 PHY_376
*12212 PHY_377
*12213 PHY_378
*12214 PHY_379
*12215 PHY_38
*12216 PHY_380
*12217 PHY_381
*12218 PHY_382
*12219 PHY_383
*12220 PHY_384
*12221 PHY_385
*12222 PHY_386
*12223 PHY_387
*12224 PHY_388
*12225 PHY_389
*12226 PHY_39
*12227 PHY_390
*12228 PHY_391
*12229 PHY_392
*12230 PHY_393
*12231 PHY_394
*12232 PHY_395
*12233 PHY_396
*12234 PHY_397
*12235 PHY_398
*12236 PHY_399
*12237 PHY_4
*12238 PHY_40
*12239 PHY_400
*12240 PHY_401
*12241 PHY_402
*12242 PHY_403
*12243 PHY_404
*12244 PHY_405
*12245 PHY_406
*12246 PHY_407
*12247 PHY_408
*12248 PHY_409
*12249 PHY_41
*12250 PHY_410
*12251 PHY_411
*12252 PHY_412
*12253 PHY_413
*12254 PHY_414
*12255 PHY_415
*12256 PHY_416
*12257 PHY_417
*12258 PHY_418
*12259 PHY_419
*12260 PHY_42
*12261 PHY_420
*12262 PHY_421
*12263 PHY_422
*12264 PHY_423
*12265 PHY_424
*12266 PHY_425
*12267 PHY_426
*12268 PHY_427
*12269 PHY_428
*12270 PHY_429
*12271 PHY_43
*12272 PHY_430
*12273 PHY_431
*12274 PHY_432
*12275 PHY_433
*12276 PHY_434
*12277 PHY_435
*12278 PHY_436
*12279 PHY_437
*12280 PHY_438
*12281 PHY_439
*12282 PHY_44
*12283 PHY_440
*12284 PHY_441
*12285 PHY_442
*12286 PHY_443
*12287 PHY_444
*12288 PHY_445
*12289 PHY_446
*12290 PHY_447
*12291 PHY_448
*12292 PHY_449
*12293 PHY_45
*12294 PHY_450
*12295 PHY_451
*12296 PHY_452
*12297 PHY_453
*12298 PHY_454
*12299 PHY_455
*12300 PHY_456
*12301 PHY_457
*12302 PHY_458
*12303 PHY_459
*12304 PHY_46
*12305 PHY_460
*12306 PHY_461
*12307 PHY_462
*12308 PHY_463
*12309 PHY_464
*12310 PHY_465
*12311 PHY_466
*12312 PHY_467
*12313 PHY_468
*12314 PHY_469
*12315 PHY_47
*12316 PHY_470
*12317 PHY_471
*12318 PHY_472
*12319 PHY_473
*12320 PHY_474
*12321 PHY_475
*12322 PHY_476
*12323 PHY_477
*12324 PHY_478
*12325 PHY_479
*12326 PHY_48
*12327 PHY_480
*12328 PHY_481
*12329 PHY_482
*12330 PHY_483
*12331 PHY_484
*12332 PHY_485
*12333 PHY_486
*12334 PHY_487
*12335 PHY_488
*12336 PHY_489
*12337 PHY_49
*12338 PHY_490
*12339 PHY_491
*12340 PHY_492
*12341 PHY_493
*12342 PHY_494
*12343 PHY_495
*12344 PHY_496
*12345 PHY_497
*12346 PHY_498
*12347 PHY_499
*12348 PHY_5
*12349 PHY_50
*12350 PHY_500
*12351 PHY_501
*12352 PHY_502
*12353 PHY_503
*12354 PHY_504
*12355 PHY_505
*12356 PHY_506
*12357 PHY_507
*12358 PHY_508
*12359 PHY_509
*12360 PHY_51
*12361 PHY_510
*12362 PHY_511
*12363 PHY_512
*12364 PHY_513
*12365 PHY_514
*12366 PHY_515
*12367 PHY_516
*12368 PHY_517
*12369 PHY_518
*12370 PHY_519
*12371 PHY_52
*12372 PHY_520
*12373 PHY_521
*12374 PHY_522
*12375 PHY_523
*12376 PHY_524
*12377 PHY_525
*12378 PHY_526
*12379 PHY_527
*12380 PHY_528
*12381 PHY_529
*12382 PHY_53
*12383 PHY_530
*12384 PHY_531
*12385 PHY_532
*12386 PHY_533
*12387 PHY_534
*12388 PHY_535
*12389 PHY_536
*12390 PHY_537
*12391 PHY_538
*12392 PHY_539
*12393 PHY_54
*12394 PHY_540
*12395 PHY_541
*12396 PHY_542
*12397 PHY_543
*12398 PHY_544
*12399 PHY_545
*12400 PHY_546
*12401 PHY_547
*12402 PHY_548
*12403 PHY_549
*12404 PHY_55
*12405 PHY_550
*12406 PHY_551
*12407 PHY_552
*12408 PHY_553
*12409 PHY_554
*12410 PHY_555
*12411 PHY_556
*12412 PHY_557
*12413 PHY_558
*12414 PHY_559
*12415 PHY_56
*12416 PHY_560
*12417 PHY_561
*12418 PHY_562
*12419 PHY_563
*12420 PHY_564
*12421 PHY_565
*12422 PHY_566
*12423 PHY_567
*12424 PHY_568
*12425 PHY_569
*12426 PHY_57
*12427 PHY_570
*12428 PHY_571
*12429 PHY_572
*12430 PHY_573
*12431 PHY_574
*12432 PHY_575
*12433 PHY_576
*12434 PHY_577
*12435 PHY_578
*12436 PHY_579
*12437 PHY_58
*12438 PHY_580
*12439 PHY_581
*12440 PHY_582
*12441 PHY_583
*12442 PHY_584
*12443 PHY_585
*12444 PHY_586
*12445 PHY_587
*12446 PHY_588
*12447 PHY_589
*12448 PHY_59
*12449 PHY_590
*12450 PHY_591
*12451 PHY_592
*12452 PHY_593
*12453 PHY_594
*12454 PHY_595
*12455 PHY_596
*12456 PHY_597
*12457 PHY_598
*12458 PHY_599
*12459 PHY_6
*12460 PHY_60
*12461 PHY_600
*12462 PHY_601
*12463 PHY_602
*12464 PHY_603
*12465 PHY_604
*12466 PHY_605
*12467 PHY_606
*12468 PHY_607
*12469 PHY_608
*12470 PHY_609
*12471 PHY_61
*12472 PHY_610
*12473 PHY_611
*12474 PHY_612
*12475 PHY_613
*12476 PHY_614
*12477 PHY_615
*12478 PHY_616
*12479 PHY_617
*12480 PHY_618
*12481 PHY_619
*12482 PHY_62
*12483 PHY_620
*12484 PHY_621
*12485 PHY_622
*12486 PHY_623
*12487 PHY_624
*12488 PHY_625
*12489 PHY_626
*12490 PHY_627
*12491 PHY_628
*12492 PHY_629
*12493 PHY_63
*12494 PHY_630
*12495 PHY_631
*12496 PHY_632
*12497 PHY_633
*12498 PHY_634
*12499 PHY_635
*12500 PHY_636
*12501 PHY_637
*12502 PHY_638
*12503 PHY_639
*12504 PHY_64
*12505 PHY_640
*12506 PHY_641
*12507 PHY_642
*12508 PHY_643
*12509 PHY_644
*12510 PHY_645
*12511 PHY_646
*12512 PHY_647
*12513 PHY_648
*12514 PHY_649
*12515 PHY_65
*12516 PHY_650
*12517 PHY_651
*12518 PHY_652
*12519 PHY_653
*12520 PHY_654
*12521 PHY_655
*12522 PHY_656
*12523 PHY_657
*12524 PHY_658
*12525 PHY_659
*12526 PHY_66
*12527 PHY_660
*12528 PHY_661
*12529 PHY_662
*12530 PHY_663
*12531 PHY_664
*12532 PHY_665
*12533 PHY_666
*12534 PHY_667
*12535 PHY_668
*12536 PHY_669
*12537 PHY_67
*12538 PHY_670
*12539 PHY_671
*12540 PHY_672
*12541 PHY_673
*12542 PHY_674
*12543 PHY_675
*12544 PHY_676
*12545 PHY_677
*12546 PHY_678
*12547 PHY_679
*12548 PHY_68
*12549 PHY_680
*12550 PHY_681
*12551 PHY_682
*12552 PHY_683
*12553 PHY_684
*12554 PHY_685
*12555 PHY_686
*12556 PHY_687
*12557 PHY_688
*12558 PHY_689
*12559 PHY_69
*12560 PHY_690
*12561 PHY_691
*12562 PHY_692
*12563 PHY_693
*12564 PHY_694
*12565 PHY_695
*12566 PHY_696
*12567 PHY_697
*12568 PHY_698
*12569 PHY_699
*12570 PHY_7
*12571 PHY_70
*12572 PHY_700
*12573 PHY_701
*12574 PHY_702
*12575 PHY_703
*12576 PHY_704
*12577 PHY_705
*12578 PHY_706
*12579 PHY_707
*12580 PHY_708
*12581 PHY_709
*12582 PHY_71
*12583 PHY_710
*12584 PHY_711
*12585 PHY_712
*12586 PHY_713
*12587 PHY_714
*12588 PHY_715
*12589 PHY_716
*12590 PHY_717
*12591 PHY_718
*12592 PHY_719
*12593 PHY_72
*12594 PHY_720
*12595 PHY_721
*12596 PHY_722
*12597 PHY_723
*12598 PHY_724
*12599 PHY_725
*12600 PHY_726
*12601 PHY_727
*12602 PHY_728
*12603 PHY_729
*12604 PHY_73
*12605 PHY_730
*12606 PHY_731
*12607 PHY_732
*12608 PHY_733
*12609 PHY_734
*12610 PHY_735
*12611 PHY_736
*12612 PHY_737
*12613 PHY_738
*12614 PHY_739
*12615 PHY_74
*12616 PHY_740
*12617 PHY_741
*12618 PHY_742
*12619 PHY_743
*12620 PHY_744
*12621 PHY_745
*12622 PHY_746
*12623 PHY_747
*12624 PHY_748
*12625 PHY_749
*12626 PHY_75
*12627 PHY_750
*12628 PHY_751
*12629 PHY_752
*12630 PHY_753
*12631 PHY_754
*12632 PHY_755
*12633 PHY_756
*12634 PHY_757
*12635 PHY_758
*12636 PHY_759
*12637 PHY_76
*12638 PHY_760
*12639 PHY_761
*12640 PHY_762
*12641 PHY_763
*12642 PHY_764
*12643 PHY_765
*12644 PHY_766
*12645 PHY_767
*12646 PHY_768
*12647 PHY_769
*12648 PHY_77
*12649 PHY_770
*12650 PHY_771
*12651 PHY_772
*12652 PHY_773
*12653 PHY_774
*12654 PHY_775
*12655 PHY_776
*12656 PHY_777
*12657 PHY_778
*12658 PHY_779
*12659 PHY_78
*12660 PHY_780
*12661 PHY_781
*12662 PHY_782
*12663 PHY_783
*12664 PHY_784
*12665 PHY_785
*12666 PHY_786
*12667 PHY_787
*12668 PHY_788
*12669 PHY_789
*12670 PHY_79
*12671 PHY_790
*12672 PHY_791
*12673 PHY_792
*12674 PHY_793
*12675 PHY_794
*12676 PHY_795
*12677 PHY_796
*12678 PHY_797
*12679 PHY_798
*12680 PHY_799
*12681 PHY_8
*12682 PHY_80
*12683 PHY_800
*12684 PHY_801
*12685 PHY_802
*12686 PHY_803
*12687 PHY_804
*12688 PHY_805
*12689 PHY_806
*12690 PHY_807
*12691 PHY_808
*12692 PHY_809
*12693 PHY_81
*12694 PHY_810
*12695 PHY_811
*12696 PHY_812
*12697 PHY_813
*12698 PHY_814
*12699 PHY_815
*12700 PHY_816
*12701 PHY_817
*12702 PHY_818
*12703 PHY_819
*12704 PHY_82
*12705 PHY_820
*12706 PHY_821
*12707 PHY_822
*12708 PHY_823
*12709 PHY_824
*12710 PHY_825
*12711 PHY_826
*12712 PHY_827
*12713 PHY_828
*12714 PHY_829
*12715 PHY_83
*12716 PHY_830
*12717 PHY_831
*12718 PHY_832
*12719 PHY_833
*12720 PHY_834
*12721 PHY_835
*12722 PHY_836
*12723 PHY_837
*12724 PHY_838
*12725 PHY_839
*12726 PHY_84
*12727 PHY_840
*12728 PHY_841
*12729 PHY_842
*12730 PHY_843
*12731 PHY_844
*12732 PHY_845
*12733 PHY_846
*12734 PHY_847
*12735 PHY_848
*12736 PHY_849
*12737 PHY_85
*12738 PHY_850
*12739 PHY_851
*12740 PHY_852
*12741 PHY_853
*12742 PHY_854
*12743 PHY_855
*12744 PHY_856
*12745 PHY_857
*12746 PHY_858
*12747 PHY_859
*12748 PHY_86
*12749 PHY_860
*12750 PHY_861
*12751 PHY_862
*12752 PHY_863
*12753 PHY_864
*12754 PHY_865
*12755 PHY_866
*12756 PHY_867
*12757 PHY_868
*12758 PHY_869
*12759 PHY_87
*12760 PHY_870
*12761 PHY_871
*12762 PHY_872
*12763 PHY_873
*12764 PHY_874
*12765 PHY_875
*12766 PHY_876
*12767 PHY_877
*12768 PHY_878
*12769 PHY_879
*12770 PHY_88
*12771 PHY_880
*12772 PHY_881
*12773 PHY_882
*12774 PHY_883
*12775 PHY_884
*12776 PHY_885
*12777 PHY_886
*12778 PHY_887
*12779 PHY_888
*12780 PHY_889
*12781 PHY_89
*12782 PHY_890
*12783 PHY_891
*12784 PHY_892
*12785 PHY_893
*12786 PHY_894
*12787 PHY_895
*12788 PHY_896
*12789 PHY_897
*12790 PHY_898
*12791 PHY_899
*12792 PHY_9
*12793 PHY_90
*12794 PHY_900
*12795 PHY_901
*12796 PHY_902
*12797 PHY_903
*12798 PHY_904
*12799 PHY_905
*12800 PHY_906
*12801 PHY_907
*12802 PHY_908
*12803 PHY_909
*12804 PHY_91
*12805 PHY_910
*12806 PHY_911
*12807 PHY_912
*12808 PHY_913
*12809 PHY_914
*12810 PHY_915
*12811 PHY_916
*12812 PHY_917
*12813 PHY_918
*12814 PHY_919
*12815 PHY_92
*12816 PHY_920
*12817 PHY_921
*12818 PHY_922
*12819 PHY_923
*12820 PHY_924
*12821 PHY_925
*12822 PHY_926
*12823 PHY_927
*12824 PHY_928
*12825 PHY_929
*12826 PHY_93
*12827 PHY_930
*12828 PHY_931
*12829 PHY_932
*12830 PHY_933
*12831 PHY_934
*12832 PHY_935
*12833 PHY_936
*12834 PHY_937
*12835 PHY_938
*12836 PHY_939
*12837 PHY_94
*12838 PHY_940
*12839 PHY_941
*12840 PHY_942
*12841 PHY_943
*12842 PHY_944
*12843 PHY_945
*12844 PHY_946
*12845 PHY_947
*12846 PHY_948
*12847 PHY_949
*12848 PHY_95
*12849 PHY_950
*12850 PHY_951
*12851 PHY_952
*12852 PHY_953
*12853 PHY_954
*12854 PHY_955
*12855 PHY_956
*12856 PHY_957
*12857 PHY_958
*12858 PHY_959
*12859 PHY_96
*12860 PHY_960
*12861 PHY_961
*12862 PHY_962
*12863 PHY_963
*12864 PHY_964
*12865 PHY_965
*12866 PHY_966
*12867 PHY_967
*12868 PHY_968
*12869 PHY_969
*12870 PHY_97
*12871 PHY_970
*12872 PHY_971
*12873 PHY_972
*12874 PHY_973
*12875 PHY_974
*12876 PHY_975
*12877 PHY_976
*12878 PHY_977
*12879 PHY_978
*12880 PHY_979
*12881 PHY_98
*12882 PHY_980
*12883 PHY_981
*12884 PHY_982
*12885 PHY_983
*12886 PHY_984
*12887 PHY_985
*12888 PHY_986
*12889 PHY_987
*12890 PHY_988
*12891 PHY_989
*12892 PHY_99
*12893 PHY_990
*12894 PHY_991
*12895 PHY_992
*12896 PHY_993
*12897 PHY_994
*12898 PHY_995
*12899 PHY_996
*12900 PHY_997
*12901 PHY_998
*12902 PHY_999
*12903 TAP_1218
*12904 TAP_1219
*12905 TAP_1220
*12906 TAP_1221
*12907 TAP_1222
*12908 TAP_1223
*12909 TAP_1224
*12910 TAP_1225
*12911 TAP_1226
*12912 TAP_1227
*12913 TAP_1228
*12914 TAP_1229
*12915 TAP_1230
*12916 TAP_1231
*12917 TAP_1232
*12918 TAP_1233
*12919 TAP_1234
*12920 TAP_1235
*12921 TAP_1236
*12922 TAP_1237
*12923 TAP_1238
*12924 TAP_1239
*12925 TAP_1240
*12926 TAP_1241
*12927 TAP_1242
*12928 TAP_1243
*12929 TAP_1244
*12930 TAP_1245
*12931 TAP_1246
*12932 TAP_1247
*12933 TAP_1248
*12934 TAP_1249
*12935 TAP_1250
*12936 TAP_1251
*12937 TAP_1252
*12938 TAP_1253
*12939 TAP_1254
*12940 TAP_1255
*12941 TAP_1256
*12942 TAP_1257
*12943 TAP_1258
*12944 TAP_1259
*12945 TAP_1260
*12946 TAP_1261
*12947 TAP_1262
*12948 TAP_1263
*12949 TAP_1264
*12950 TAP_1265
*12951 TAP_1266
*12952 TAP_1267
*12953 TAP_1268
*12954 TAP_1269
*12955 TAP_1270
*12956 TAP_1271
*12957 TAP_1272
*12958 TAP_1273
*12959 TAP_1274
*12960 TAP_1275
*12961 TAP_1276
*12962 TAP_1277
*12963 TAP_1278
*12964 TAP_1279
*12965 TAP_1280
*12966 TAP_1281
*12967 TAP_1282
*12968 TAP_1283
*12969 TAP_1284
*12970 TAP_1285
*12971 TAP_1286
*12972 TAP_1287
*12973 TAP_1288
*12974 TAP_1289
*12975 TAP_1290
*12976 TAP_1291
*12977 TAP_1292
*12978 TAP_1293
*12979 TAP_1294
*12980 TAP_1295
*12981 TAP_1296
*12982 TAP_1297
*12983 TAP_1298
*12984 TAP_1299
*12985 TAP_1300
*12986 TAP_1301
*12987 TAP_1302
*12988 TAP_1303
*12989 TAP_1304
*12990 TAP_1305
*12991 TAP_1306
*12992 TAP_1307
*12993 TAP_1308
*12994 TAP_1309
*12995 TAP_1310
*12996 TAP_1311
*12997 TAP_1312
*12998 TAP_1313
*12999 TAP_1314
*13000 TAP_1315
*13001 TAP_1316
*13002 TAP_1317
*13003 TAP_1318
*13004 TAP_1319
*13005 TAP_1320
*13006 TAP_1321
*13007 TAP_1322
*13008 TAP_1323
*13009 TAP_1324
*13010 TAP_1325
*13011 TAP_1326
*13012 TAP_1327
*13013 TAP_1328
*13014 TAP_1329
*13015 TAP_1330
*13016 TAP_1331
*13017 TAP_1332
*13018 TAP_1333
*13019 TAP_1334
*13020 TAP_1335
*13021 TAP_1336
*13022 TAP_1337
*13023 TAP_1338
*13024 TAP_1339
*13025 TAP_1340
*13026 TAP_1341
*13027 TAP_1342
*13028 TAP_1343
*13029 TAP_1344
*13030 TAP_1345
*13031 TAP_1346
*13032 TAP_1347
*13033 TAP_1348
*13034 TAP_1349
*13035 TAP_1350
*13036 TAP_1351
*13037 TAP_1352
*13038 TAP_1353
*13039 TAP_1354
*13040 TAP_1355
*13041 TAP_1356
*13042 TAP_1357
*13043 TAP_1358
*13044 TAP_1359
*13045 TAP_1360
*13046 TAP_1361
*13047 TAP_1362
*13048 TAP_1363
*13049 TAP_1364
*13050 TAP_1365
*13051 TAP_1366
*13052 TAP_1367
*13053 TAP_1368
*13054 TAP_1369
*13055 TAP_1370
*13056 TAP_1371
*13057 TAP_1372
*13058 TAP_1373
*13059 TAP_1374
*13060 TAP_1375
*13061 TAP_1376
*13062 TAP_1377
*13063 TAP_1378
*13064 TAP_1379
*13065 TAP_1380
*13066 TAP_1381
*13067 TAP_1382
*13068 TAP_1383
*13069 TAP_1384
*13070 TAP_1385
*13071 TAP_1386
*13072 TAP_1387
*13073 TAP_1388
*13074 TAP_1389
*13075 TAP_1390
*13076 TAP_1391
*13077 TAP_1392
*13078 TAP_1393
*13079 TAP_1394
*13080 TAP_1395
*13081 TAP_1396
*13082 TAP_1397
*13083 TAP_1398
*13084 TAP_1399
*13085 TAP_1400
*13086 TAP_1401
*13087 TAP_1402
*13088 TAP_1403
*13089 TAP_1404
*13090 TAP_1405
*13091 TAP_1406
*13092 TAP_1407
*13093 TAP_1408
*13094 TAP_1409
*13095 TAP_1410
*13096 TAP_1411
*13097 TAP_1412
*13098 TAP_1413
*13099 TAP_1414
*13100 TAP_1415
*13101 TAP_1416
*13102 TAP_1417
*13103 TAP_1418
*13104 TAP_1419
*13105 TAP_1420
*13106 TAP_1421
*13107 TAP_1422
*13108 TAP_1423
*13109 TAP_1424
*13110 TAP_1425
*13111 TAP_1426
*13112 TAP_1427
*13113 TAP_1428
*13114 TAP_1429
*13115 TAP_1430
*13116 TAP_1431
*13117 TAP_1432
*13118 TAP_1433
*13119 TAP_1434
*13120 TAP_1435
*13121 TAP_1436
*13122 TAP_1437
*13123 TAP_1438
*13124 TAP_1439
*13125 TAP_1440
*13126 TAP_1441
*13127 TAP_1442
*13128 TAP_1443
*13129 TAP_1444
*13130 TAP_1445
*13131 TAP_1446
*13132 TAP_1447
*13133 TAP_1448
*13134 TAP_1449
*13135 TAP_1450
*13136 TAP_1451
*13137 TAP_1452
*13138 TAP_1453
*13139 TAP_1454
*13140 TAP_1455
*13141 TAP_1456
*13142 TAP_1457
*13143 TAP_1458
*13144 TAP_1459
*13145 TAP_1460
*13146 TAP_1461
*13147 TAP_1462
*13148 TAP_1463
*13149 TAP_1464
*13150 TAP_1465
*13151 TAP_1466
*13152 TAP_1467
*13153 TAP_1468
*13154 TAP_1469
*13155 TAP_1470
*13156 TAP_1471
*13157 TAP_1472
*13158 TAP_1473
*13159 TAP_1474
*13160 TAP_1475
*13161 TAP_1476
*13162 TAP_1477
*13163 TAP_1478
*13164 TAP_1479
*13165 TAP_1480
*13166 TAP_1481
*13167 TAP_1482
*13168 TAP_1483
*13169 TAP_1484
*13170 TAP_1485
*13171 TAP_1486
*13172 TAP_1487
*13173 TAP_1488
*13174 TAP_1489
*13175 TAP_1490
*13176 TAP_1491
*13177 TAP_1492
*13178 TAP_1493
*13179 TAP_1494
*13180 TAP_1495
*13181 TAP_1496
*13182 TAP_1497
*13183 TAP_1498
*13184 TAP_1499
*13185 TAP_1500
*13186 TAP_1501
*13187 TAP_1502
*13188 TAP_1503
*13189 TAP_1504
*13190 TAP_1505
*13191 TAP_1506
*13192 TAP_1507
*13193 TAP_1508
*13194 TAP_1509
*13195 TAP_1510
*13196 TAP_1511
*13197 TAP_1512
*13198 TAP_1513
*13199 TAP_1514
*13200 TAP_1515
*13201 TAP_1516
*13202 TAP_1517
*13203 TAP_1518
*13204 TAP_1519
*13205 TAP_1520
*13206 TAP_1521
*13207 TAP_1522
*13208 TAP_1523
*13209 TAP_1524
*13210 TAP_1525
*13211 TAP_1526
*13212 TAP_1527
*13213 TAP_1528
*13214 TAP_1529
*13215 TAP_1530
*13216 TAP_1531
*13217 TAP_1532
*13218 TAP_1533
*13219 TAP_1534
*13220 TAP_1535
*13221 TAP_1536
*13222 TAP_1537
*13223 TAP_1538
*13224 TAP_1539
*13225 TAP_1540
*13226 TAP_1541
*13227 TAP_1542
*13228 TAP_1543
*13229 TAP_1544
*13230 TAP_1545
*13231 TAP_1546
*13232 TAP_1547
*13233 TAP_1548
*13234 TAP_1549
*13235 TAP_1550
*13236 TAP_1551
*13237 TAP_1552
*13238 TAP_1553
*13239 TAP_1554
*13240 TAP_1555
*13241 TAP_1556
*13242 TAP_1557
*13243 TAP_1558
*13244 TAP_1559
*13245 TAP_1560
*13246 TAP_1561
*13247 TAP_1562
*13248 TAP_1563
*13249 TAP_1564
*13250 TAP_1565
*13251 TAP_1566
*13252 TAP_1567
*13253 TAP_1568
*13254 TAP_1569
*13255 TAP_1570
*13256 TAP_1571
*13257 TAP_1572
*13258 TAP_1573
*13259 TAP_1574
*13260 TAP_1575
*13261 TAP_1576
*13262 TAP_1577
*13263 TAP_1578
*13264 TAP_1579
*13265 TAP_1580
*13266 TAP_1581
*13267 TAP_1582
*13268 TAP_1583
*13269 TAP_1584
*13270 TAP_1585
*13271 TAP_1586
*13272 TAP_1587
*13273 TAP_1588
*13274 TAP_1589
*13275 TAP_1590
*13276 TAP_1591
*13277 TAP_1592
*13278 TAP_1593
*13279 TAP_1594
*13280 TAP_1595
*13281 TAP_1596
*13282 TAP_1597
*13283 TAP_1598
*13284 TAP_1599
*13285 TAP_1600
*13286 TAP_1601
*13287 TAP_1602
*13288 TAP_1603
*13289 TAP_1604
*13290 TAP_1605
*13291 TAP_1606
*13292 TAP_1607
*13293 TAP_1608
*13294 TAP_1609
*13295 TAP_1610
*13296 TAP_1611
*13297 TAP_1612
*13298 TAP_1613
*13299 TAP_1614
*13300 TAP_1615
*13301 TAP_1616
*13302 TAP_1617
*13303 TAP_1618
*13304 TAP_1619
*13305 TAP_1620
*13306 TAP_1621
*13307 TAP_1622
*13308 TAP_1623
*13309 TAP_1624
*13310 TAP_1625
*13311 TAP_1626
*13312 TAP_1627
*13313 TAP_1628
*13314 TAP_1629
*13315 TAP_1630
*13316 TAP_1631
*13317 TAP_1632
*13318 TAP_1633
*13319 TAP_1634
*13320 TAP_1635
*13321 TAP_1636
*13322 TAP_1637
*13323 TAP_1638
*13324 TAP_1639
*13325 TAP_1640
*13326 TAP_1641
*13327 TAP_1642
*13328 TAP_1643
*13329 TAP_1644
*13330 TAP_1645
*13331 TAP_1646
*13332 TAP_1647
*13333 TAP_1648
*13334 TAP_1649
*13335 TAP_1650
*13336 TAP_1651
*13337 TAP_1652
*13338 TAP_1653
*13339 TAP_1654
*13340 TAP_1655
*13341 TAP_1656
*13342 TAP_1657
*13343 TAP_1658
*13344 TAP_1659
*13345 TAP_1660
*13346 TAP_1661
*13347 TAP_1662
*13348 TAP_1663
*13349 TAP_1664
*13350 TAP_1665
*13351 TAP_1666
*13352 TAP_1667
*13353 TAP_1668
*13354 TAP_1669
*13355 TAP_1670
*13356 TAP_1671
*13357 TAP_1672
*13358 TAP_1673
*13359 TAP_1674
*13360 TAP_1675
*13361 TAP_1676
*13362 TAP_1677
*13363 TAP_1678
*13364 TAP_1679
*13365 TAP_1680
*13366 TAP_1681
*13367 TAP_1682
*13368 TAP_1683
*13369 TAP_1684
*13370 TAP_1685
*13371 TAP_1686
*13372 TAP_1687
*13373 TAP_1688
*13374 TAP_1689
*13375 TAP_1690
*13376 TAP_1691
*13377 TAP_1692
*13378 TAP_1693
*13379 TAP_1694
*13380 TAP_1695
*13381 TAP_1696
*13382 TAP_1697
*13383 TAP_1698
*13384 TAP_1699
*13385 TAP_1700
*13386 TAP_1701
*13387 TAP_1702
*13388 TAP_1703
*13389 TAP_1704
*13390 TAP_1705
*13391 TAP_1706
*13392 TAP_1707
*13393 TAP_1708
*13394 TAP_1709
*13395 TAP_1710
*13396 TAP_1711
*13397 TAP_1712
*13398 TAP_1713
*13399 TAP_1714
*13400 TAP_1715
*13401 TAP_1716
*13402 TAP_1717
*13403 TAP_1718
*13404 TAP_1719
*13405 TAP_1720
*13406 TAP_1721
*13407 TAP_1722
*13408 TAP_1723
*13409 TAP_1724
*13410 TAP_1725
*13411 TAP_1726
*13412 TAP_1727
*13413 TAP_1728
*13414 TAP_1729
*13415 TAP_1730
*13416 TAP_1731
*13417 TAP_1732
*13418 TAP_1733
*13419 TAP_1734
*13420 TAP_1735
*13421 TAP_1736
*13422 TAP_1737
*13423 TAP_1738
*13424 TAP_1739
*13425 TAP_1740
*13426 TAP_1741
*13427 TAP_1742
*13428 TAP_1743
*13429 TAP_1744
*13430 TAP_1745
*13431 TAP_1746
*13432 TAP_1747
*13433 TAP_1748
*13434 TAP_1749
*13435 TAP_1750
*13436 TAP_1751
*13437 TAP_1752
*13438 TAP_1753
*13439 TAP_1754
*13440 TAP_1755
*13441 TAP_1756
*13442 TAP_1757
*13443 TAP_1758
*13444 TAP_1759
*13445 TAP_1760
*13446 TAP_1761
*13447 TAP_1762
*13448 TAP_1763
*13449 TAP_1764
*13450 TAP_1765
*13451 TAP_1766
*13452 TAP_1767
*13453 TAP_1768
*13454 TAP_1769
*13455 TAP_1770
*13456 TAP_1771
*13457 TAP_1772
*13458 TAP_1773
*13459 TAP_1774
*13460 TAP_1775
*13461 TAP_1776
*13462 TAP_1777
*13463 TAP_1778
*13464 TAP_1779
*13465 TAP_1780
*13466 TAP_1781
*13467 TAP_1782
*13468 TAP_1783
*13469 TAP_1784
*13470 TAP_1785
*13471 TAP_1786
*13472 TAP_1787
*13473 TAP_1788
*13474 TAP_1789
*13475 TAP_1790
*13476 TAP_1791
*13477 TAP_1792
*13478 TAP_1793
*13479 TAP_1794
*13480 TAP_1795
*13481 TAP_1796
*13482 TAP_1797
*13483 TAP_1798
*13484 TAP_1799
*13485 TAP_1800
*13486 TAP_1801
*13487 TAP_1802
*13488 TAP_1803
*13489 TAP_1804
*13490 TAP_1805
*13491 TAP_1806
*13492 TAP_1807
*13493 TAP_1808
*13494 TAP_1809
*13495 TAP_1810
*13496 TAP_1811
*13497 TAP_1812
*13498 TAP_1813
*13499 TAP_1814
*13500 TAP_1815
*13501 TAP_1816
*13502 TAP_1817
*13503 TAP_1818
*13504 TAP_1819
*13505 TAP_1820
*13506 TAP_1821
*13507 TAP_1822
*13508 TAP_1823
*13509 TAP_1824
*13510 TAP_1825
*13511 TAP_1826
*13512 TAP_1827
*13513 TAP_1828
*13514 TAP_1829
*13515 TAP_1830
*13516 TAP_1831
*13517 TAP_1832
*13518 TAP_1833
*13519 TAP_1834
*13520 TAP_1835
*13521 TAP_1836
*13522 TAP_1837
*13523 TAP_1838
*13524 TAP_1839
*13525 TAP_1840
*13526 TAP_1841
*13527 TAP_1842
*13528 TAP_1843
*13529 TAP_1844
*13530 TAP_1845
*13531 TAP_1846
*13532 TAP_1847
*13533 TAP_1848
*13534 TAP_1849
*13535 TAP_1850
*13536 TAP_1851
*13537 TAP_1852
*13538 TAP_1853
*13539 TAP_1854
*13540 TAP_1855
*13541 TAP_1856
*13542 TAP_1857
*13543 TAP_1858
*13544 TAP_1859
*13545 TAP_1860
*13546 TAP_1861
*13547 TAP_1862
*13548 TAP_1863
*13549 TAP_1864
*13550 TAP_1865
*13551 TAP_1866
*13552 TAP_1867
*13553 TAP_1868
*13554 TAP_1869
*13555 TAP_1870
*13556 TAP_1871
*13557 TAP_1872
*13558 TAP_1873
*13559 TAP_1874
*13560 TAP_1875
*13561 TAP_1876
*13562 TAP_1877
*13563 TAP_1878
*13564 TAP_1879
*13565 TAP_1880
*13566 TAP_1881
*13567 TAP_1882
*13568 TAP_1883
*13569 TAP_1884
*13570 TAP_1885
*13571 TAP_1886
*13572 TAP_1887
*13573 TAP_1888
*13574 TAP_1889
*13575 TAP_1890
*13576 TAP_1891
*13577 TAP_1892
*13578 TAP_1893
*13579 TAP_1894
*13580 TAP_1895
*13581 TAP_1896
*13582 TAP_1897
*13583 TAP_1898
*13584 TAP_1899
*13585 TAP_1900
*13586 TAP_1901
*13587 TAP_1902
*13588 TAP_1903
*13589 TAP_1904
*13590 TAP_1905
*13591 TAP_1906
*13592 TAP_1907
*13593 TAP_1908
*13594 TAP_1909
*13595 TAP_1910
*13596 TAP_1911
*13597 TAP_1912
*13598 TAP_1913
*13599 TAP_1914
*13600 TAP_1915
*13601 TAP_1916
*13602 TAP_1917
*13603 TAP_1918
*13604 TAP_1919
*13605 TAP_1920
*13606 TAP_1921
*13607 TAP_1922
*13608 TAP_1923
*13609 TAP_1924
*13610 TAP_1925
*13611 TAP_1926
*13612 TAP_1927
*13613 TAP_1928
*13614 TAP_1929
*13615 TAP_1930
*13616 TAP_1931
*13617 TAP_1932
*13618 TAP_1933
*13619 TAP_1934
*13620 TAP_1935
*13621 TAP_1936
*13622 TAP_1937
*13623 TAP_1938
*13624 TAP_1939
*13625 TAP_1940
*13626 TAP_1941
*13627 TAP_1942
*13628 TAP_1943
*13629 TAP_1944
*13630 TAP_1945
*13631 TAP_1946
*13632 TAP_1947
*13633 TAP_1948
*13634 TAP_1949
*13635 TAP_1950
*13636 TAP_1951
*13637 TAP_1952
*13638 TAP_1953
*13639 TAP_1954
*13640 TAP_1955
*13641 TAP_1956
*13642 TAP_1957
*13643 TAP_1958
*13644 TAP_1959
*13645 TAP_1960
*13646 TAP_1961
*13647 TAP_1962
*13648 TAP_1963
*13649 TAP_1964
*13650 TAP_1965
*13651 TAP_1966
*13652 TAP_1967
*13653 TAP_1968
*13654 TAP_1969
*13655 TAP_1970
*13656 TAP_1971
*13657 TAP_1972
*13658 TAP_1973
*13659 TAP_1974
*13660 TAP_1975
*13661 TAP_1976
*13662 TAP_1977
*13663 TAP_1978
*13664 TAP_1979
*13665 TAP_1980
*13666 TAP_1981
*13667 TAP_1982
*13668 TAP_1983
*13669 TAP_1984
*13670 TAP_1985
*13671 TAP_1986
*13672 TAP_1987
*13673 TAP_1988
*13674 TAP_1989
*13675 TAP_1990
*13676 TAP_1991
*13677 TAP_1992
*13678 TAP_1993
*13679 TAP_1994
*13680 TAP_1995
*13681 TAP_1996
*13682 TAP_1997
*13683 TAP_1998
*13684 TAP_1999
*13685 TAP_2000
*13686 TAP_2001
*13687 TAP_2002
*13688 TAP_2003
*13689 TAP_2004
*13690 TAP_2005
*13691 TAP_2006
*13692 TAP_2007
*13693 TAP_2008
*13694 TAP_2009
*13695 TAP_2010
*13696 TAP_2011
*13697 TAP_2012
*13698 TAP_2013
*13699 TAP_2014
*13700 TAP_2015
*13701 TAP_2016
*13702 TAP_2017
*13703 TAP_2018
*13704 TAP_2019
*13705 TAP_2020
*13706 TAP_2021
*13707 TAP_2022
*13708 TAP_2023
*13709 TAP_2024
*13710 TAP_2025
*13711 TAP_2026
*13712 TAP_2027
*13713 TAP_2028
*13714 TAP_2029
*13715 TAP_2030
*13716 TAP_2031
*13717 TAP_2032
*13718 TAP_2033
*13719 TAP_2034
*13720 TAP_2035
*13721 TAP_2036
*13722 TAP_2037
*13723 TAP_2038
*13724 TAP_2039
*13725 TAP_2040
*13726 TAP_2041
*13727 TAP_2042
*13728 TAP_2043
*13729 TAP_2044
*13730 TAP_2045
*13731 TAP_2046
*13732 TAP_2047
*13733 TAP_2048
*13734 TAP_2049
*13735 TAP_2050
*13736 TAP_2051
*13737 TAP_2052
*13738 TAP_2053
*13739 TAP_2054
*13740 TAP_2055
*13741 TAP_2056
*13742 TAP_2057
*13743 TAP_2058
*13744 TAP_2059
*13745 TAP_2060
*13746 TAP_2061
*13747 TAP_2062
*13748 TAP_2063
*13749 TAP_2064
*13750 TAP_2065
*13751 TAP_2066
*13752 TAP_2067
*13753 TAP_2068
*13754 TAP_2069
*13755 TAP_2070
*13756 TAP_2071
*13757 TAP_2072
*13758 TAP_2073
*13759 TAP_2074
*13760 TAP_2075
*13761 TAP_2076
*13762 TAP_2077
*13763 TAP_2078
*13764 TAP_2079
*13765 TAP_2080
*13766 TAP_2081
*13767 TAP_2082
*13768 TAP_2083
*13769 TAP_2084
*13770 TAP_2085
*13771 TAP_2086
*13772 TAP_2087
*13773 TAP_2088
*13774 TAP_2089
*13775 TAP_2090
*13776 TAP_2091
*13777 TAP_2092
*13778 TAP_2093
*13779 TAP_2094
*13780 TAP_2095
*13781 TAP_2096
*13782 TAP_2097
*13783 TAP_2098
*13784 TAP_2099
*13785 TAP_2100
*13786 TAP_2101
*13787 TAP_2102
*13788 TAP_2103
*13789 TAP_2104
*13790 TAP_2105
*13791 TAP_2106
*13792 TAP_2107
*13793 TAP_2108
*13794 TAP_2109
*13795 TAP_2110
*13796 TAP_2111
*13797 TAP_2112
*13798 TAP_2113
*13799 TAP_2114
*13800 TAP_2115
*13801 TAP_2116
*13802 TAP_2117
*13803 TAP_2118
*13804 TAP_2119
*13805 TAP_2120
*13806 TAP_2121
*13807 TAP_2122
*13808 TAP_2123
*13809 TAP_2124
*13810 TAP_2125
*13811 TAP_2126
*13812 TAP_2127
*13813 TAP_2128
*13814 TAP_2129
*13815 TAP_2130
*13816 TAP_2131
*13817 TAP_2132
*13818 TAP_2133
*13819 TAP_2134
*13820 TAP_2135
*13821 TAP_2136
*13822 TAP_2137
*13823 TAP_2138
*13824 TAP_2139
*13825 TAP_2140
*13826 TAP_2141
*13827 TAP_2142
*13828 TAP_2143
*13829 TAP_2144
*13830 TAP_2145
*13831 TAP_2146
*13832 TAP_2147
*13833 TAP_2148
*13834 TAP_2149
*13835 TAP_2150
*13836 TAP_2151
*13837 TAP_2152
*13838 TAP_2153
*13839 TAP_2154
*13840 TAP_2155
*13841 TAP_2156
*13842 TAP_2157
*13843 TAP_2158
*13844 TAP_2159
*13845 TAP_2160
*13846 TAP_2161
*13847 TAP_2162
*13848 TAP_2163
*13849 TAP_2164
*13850 TAP_2165
*13851 TAP_2166
*13852 TAP_2167
*13853 TAP_2168
*13854 TAP_2169
*13855 TAP_2170
*13856 TAP_2171
*13857 TAP_2172
*13858 TAP_2173
*13859 TAP_2174
*13860 TAP_2175
*13861 TAP_2176
*13862 TAP_2177
*13863 TAP_2178
*13864 TAP_2179
*13865 TAP_2180
*13866 TAP_2181
*13867 TAP_2182
*13868 TAP_2183
*13869 TAP_2184
*13870 TAP_2185
*13871 TAP_2186
*13872 TAP_2187
*13873 TAP_2188
*13874 TAP_2189
*13875 TAP_2190
*13876 TAP_2191
*13877 TAP_2192
*13878 TAP_2193
*13879 TAP_2194
*13880 TAP_2195
*13881 TAP_2196
*13882 TAP_2197
*13883 TAP_2198
*13884 TAP_2199
*13885 TAP_2200
*13886 TAP_2201
*13887 TAP_2202
*13888 TAP_2203
*13889 TAP_2204
*13890 TAP_2205
*13891 TAP_2206
*13892 TAP_2207
*13893 TAP_2208
*13894 TAP_2209
*13895 TAP_2210
*13896 TAP_2211
*13897 TAP_2212
*13898 TAP_2213
*13899 TAP_2214
*13900 TAP_2215
*13901 TAP_2216
*13902 TAP_2217
*13903 TAP_2218
*13904 TAP_2219
*13905 TAP_2220
*13906 TAP_2221
*13907 TAP_2222
*13908 TAP_2223
*13909 TAP_2224
*13910 TAP_2225
*13911 TAP_2226
*13912 TAP_2227
*13913 TAP_2228
*13914 TAP_2229
*13915 TAP_2230
*13916 TAP_2231
*13917 TAP_2232
*13918 TAP_2233
*13919 TAP_2234
*13920 TAP_2235
*13921 TAP_2236
*13922 TAP_2237
*13923 TAP_2238
*13924 TAP_2239
*13925 TAP_2240
*13926 TAP_2241
*13927 TAP_2242
*13928 TAP_2243
*13929 TAP_2244
*13930 TAP_2245
*13931 TAP_2246
*13932 TAP_2247
*13933 TAP_2248
*13934 TAP_2249
*13935 TAP_2250
*13936 TAP_2251
*13937 TAP_2252
*13938 TAP_2253
*13939 TAP_2254
*13940 TAP_2255
*13941 TAP_2256
*13942 TAP_2257
*13943 TAP_2258
*13944 TAP_2259
*13945 TAP_2260
*13946 TAP_2261
*13947 TAP_2262
*13948 TAP_2263
*13949 TAP_2264
*13950 TAP_2265
*13951 TAP_2266
*13952 TAP_2267
*13953 TAP_2268
*13954 TAP_2269
*13955 TAP_2270
*13956 TAP_2271
*13957 TAP_2272
*13958 TAP_2273
*13959 TAP_2274
*13960 TAP_2275
*13961 TAP_2276
*13962 TAP_2277
*13963 TAP_2278
*13964 TAP_2279
*13965 TAP_2280
*13966 TAP_2281
*13967 TAP_2282
*13968 TAP_2283
*13969 TAP_2284
*13970 TAP_2285
*13971 TAP_2286
*13972 TAP_2287
*13973 TAP_2288
*13974 TAP_2289
*13975 TAP_2290
*13976 TAP_2291
*13977 TAP_2292
*13978 TAP_2293
*13979 TAP_2294
*13980 TAP_2295
*13981 TAP_2296
*13982 TAP_2297
*13983 TAP_2298
*13984 TAP_2299
*13985 TAP_2300
*13986 TAP_2301
*13987 TAP_2302
*13988 TAP_2303
*13989 TAP_2304
*13990 TAP_2305
*13991 TAP_2306
*13992 TAP_2307
*13993 TAP_2308
*13994 TAP_2309
*13995 TAP_2310
*13996 TAP_2311
*13997 TAP_2312
*13998 TAP_2313
*13999 TAP_2314
*14000 TAP_2315
*14001 TAP_2316
*14002 TAP_2317
*14003 TAP_2318
*14004 TAP_2319
*14005 TAP_2320
*14006 TAP_2321
*14007 TAP_2322
*14008 TAP_2323
*14009 TAP_2324
*14010 TAP_2325
*14011 TAP_2326
*14012 TAP_2327
*14013 TAP_2328
*14014 TAP_2329
*14015 TAP_2330
*14016 TAP_2331
*14017 TAP_2332
*14018 TAP_2333
*14019 TAP_2334
*14020 TAP_2335
*14021 TAP_2336
*14022 TAP_2337
*14023 TAP_2338
*14024 TAP_2339
*14025 TAP_2340
*14026 TAP_2341
*14027 TAP_2342
*14028 TAP_2343
*14029 TAP_2344
*14030 TAP_2345
*14031 TAP_2346
*14032 TAP_2347
*14033 TAP_2348
*14034 TAP_2349
*14035 TAP_2350
*14036 TAP_2351
*14037 TAP_2352
*14038 TAP_2353
*14039 TAP_2354
*14040 TAP_2355
*14041 TAP_2356
*14042 TAP_2357
*14043 TAP_2358
*14044 TAP_2359
*14045 TAP_2360
*14046 TAP_2361
*14047 TAP_2362
*14048 TAP_2363
*14049 TAP_2364
*14050 TAP_2365
*14051 TAP_2366
*14052 TAP_2367
*14053 TAP_2368
*14054 TAP_2369
*14055 TAP_2370
*14056 TAP_2371
*14057 TAP_2372
*14058 TAP_2373
*14059 TAP_2374
*14060 TAP_2375
*14061 TAP_2376
*14062 TAP_2377
*14063 TAP_2378
*14064 TAP_2379
*14065 TAP_2380
*14066 TAP_2381
*14067 TAP_2382
*14068 TAP_2383
*14069 TAP_2384
*14070 TAP_2385
*14071 TAP_2386
*14072 TAP_2387
*14073 TAP_2388
*14074 TAP_2389
*14075 TAP_2390
*14076 TAP_2391
*14077 TAP_2392
*14078 TAP_2393
*14079 TAP_2394
*14080 TAP_2395
*14081 TAP_2396
*14082 TAP_2397
*14083 TAP_2398
*14084 TAP_2399
*14085 TAP_2400
*14086 TAP_2401
*14087 TAP_2402
*14088 TAP_2403
*14089 TAP_2404
*14090 TAP_2405
*14091 TAP_2406
*14092 TAP_2407
*14093 TAP_2408
*14094 TAP_2409
*14095 TAP_2410
*14096 TAP_2411
*14097 TAP_2412
*14098 TAP_2413
*14099 TAP_2414
*14100 TAP_2415
*14101 TAP_2416
*14102 TAP_2417
*14103 TAP_2418
*14104 TAP_2419
*14105 TAP_2420
*14106 TAP_2421
*14107 TAP_2422
*14108 TAP_2423
*14109 TAP_2424
*14110 TAP_2425
*14111 TAP_2426
*14112 TAP_2427
*14113 TAP_2428
*14114 TAP_2429
*14115 TAP_2430
*14116 TAP_2431
*14117 TAP_2432
*14118 TAP_2433
*14119 TAP_2434
*14120 TAP_2435
*14121 TAP_2436
*14122 TAP_2437
*14123 TAP_2438
*14124 TAP_2439
*14125 TAP_2440
*14126 TAP_2441
*14127 TAP_2442
*14128 TAP_2443
*14129 TAP_2444
*14130 TAP_2445
*14131 TAP_2446
*14132 TAP_2447
*14133 TAP_2448
*14134 TAP_2449
*14135 TAP_2450
*14136 TAP_2451
*14137 TAP_2452
*14138 TAP_2453
*14139 TAP_2454
*14140 TAP_2455
*14141 TAP_2456
*14142 TAP_2457
*14143 TAP_2458
*14144 TAP_2459
*14145 TAP_2460
*14146 TAP_2461
*14147 TAP_2462
*14148 TAP_2463
*14149 TAP_2464
*14150 TAP_2465
*14151 TAP_2466
*14152 TAP_2467
*14153 TAP_2468
*14154 TAP_2469
*14155 TAP_2470
*14156 TAP_2471
*14157 TAP_2472
*14158 TAP_2473
*14159 TAP_2474
*14160 TAP_2475
*14161 TAP_2476
*14162 TAP_2477
*14163 TAP_2478
*14164 TAP_2479
*14165 TAP_2480
*14166 TAP_2481
*14167 TAP_2482
*14168 TAP_2483
*14169 TAP_2484
*14170 TAP_2485
*14171 TAP_2486
*14172 TAP_2487
*14173 TAP_2488
*14174 TAP_2489
*14175 TAP_2490
*14176 TAP_2491
*14177 TAP_2492
*14178 TAP_2493
*14179 TAP_2494
*14180 TAP_2495
*14181 TAP_2496
*14182 TAP_2497
*14183 TAP_2498
*14184 TAP_2499
*14185 TAP_2500
*14186 TAP_2501
*14187 TAP_2502
*14188 TAP_2503
*14189 TAP_2504
*14190 TAP_2505
*14191 TAP_2506
*14192 TAP_2507
*14193 TAP_2508
*14194 TAP_2509
*14195 TAP_2510
*14196 TAP_2511
*14197 TAP_2512
*14198 TAP_2513
*14199 TAP_2514
*14200 TAP_2515
*14201 TAP_2516
*14202 TAP_2517
*14203 TAP_2518
*14204 TAP_2519
*14205 TAP_2520
*14206 TAP_2521
*14207 TAP_2522
*14208 TAP_2523
*14209 TAP_2524
*14210 TAP_2525
*14211 TAP_2526
*14212 TAP_2527
*14213 TAP_2528
*14214 TAP_2529
*14215 TAP_2530
*14216 TAP_2531
*14217 TAP_2532
*14218 TAP_2533
*14219 TAP_2534
*14220 TAP_2535
*14221 TAP_2536
*14222 TAP_2537
*14223 TAP_2538
*14224 TAP_2539
*14225 TAP_2540
*14226 TAP_2541
*14227 TAP_2542
*14228 TAP_2543
*14229 TAP_2544
*14230 TAP_2545
*14231 TAP_2546
*14232 TAP_2547
*14233 TAP_2548
*14234 TAP_2549
*14235 TAP_2550
*14236 TAP_2551
*14237 TAP_2552
*14238 TAP_2553
*14239 TAP_2554
*14240 TAP_2555
*14241 TAP_2556
*14242 TAP_2557
*14243 TAP_2558
*14244 TAP_2559
*14245 TAP_2560
*14246 TAP_2561
*14247 TAP_2562
*14248 TAP_2563
*14249 TAP_2564
*14250 TAP_2565
*14251 TAP_2566
*14252 TAP_2567
*14253 TAP_2568
*14254 TAP_2569
*14255 TAP_2570
*14256 TAP_2571
*14257 TAP_2572
*14258 TAP_2573
*14259 TAP_2574
*14260 TAP_2575
*14261 TAP_2576
*14262 TAP_2577
*14263 TAP_2578
*14264 TAP_2579
*14265 TAP_2580
*14266 TAP_2581
*14267 TAP_2582
*14268 TAP_2583
*14269 TAP_2584
*14270 TAP_2585
*14271 TAP_2586
*14272 TAP_2587
*14273 TAP_2588
*14274 TAP_2589
*14275 TAP_2590
*14276 TAP_2591
*14277 TAP_2592
*14278 TAP_2593
*14279 TAP_2594
*14280 TAP_2595
*14281 TAP_2596
*14282 TAP_2597
*14283 TAP_2598
*14284 TAP_2599
*14285 TAP_2600
*14286 TAP_2601
*14287 TAP_2602
*14288 TAP_2603
*14289 TAP_2604
*14290 TAP_2605
*14291 TAP_2606
*14292 TAP_2607
*14293 TAP_2608
*14294 TAP_2609
*14295 TAP_2610
*14296 TAP_2611
*14297 TAP_2612
*14298 TAP_2613
*14299 TAP_2614
*14300 TAP_2615
*14301 TAP_2616
*14302 TAP_2617
*14303 TAP_2618
*14304 TAP_2619
*14305 TAP_2620
*14306 TAP_2621
*14307 TAP_2622
*14308 TAP_2623
*14309 TAP_2624
*14310 TAP_2625
*14311 TAP_2626
*14312 TAP_2627
*14313 TAP_2628
*14314 TAP_2629
*14315 TAP_2630
*14316 TAP_2631
*14317 TAP_2632
*14318 TAP_2633
*14319 TAP_2634
*14320 TAP_2635
*14321 TAP_2636
*14322 TAP_2637
*14323 TAP_2638
*14324 TAP_2639
*14325 TAP_2640
*14326 TAP_2641
*14327 TAP_2642
*14328 TAP_2643
*14329 TAP_2644
*14330 TAP_2645
*14331 TAP_2646
*14332 TAP_2647
*14333 TAP_2648
*14334 TAP_2649
*14335 TAP_2650
*14336 TAP_2651
*14337 TAP_2652
*14338 TAP_2653
*14339 TAP_2654
*14340 TAP_2655
*14341 TAP_2656
*14342 TAP_2657
*14343 TAP_2658
*14344 TAP_2659
*14345 TAP_2660
*14346 TAP_2661
*14347 TAP_2662
*14348 TAP_2663
*14349 TAP_2664
*14350 TAP_2665
*14351 TAP_2666
*14352 TAP_2667
*14353 TAP_2668
*14354 TAP_2669
*14355 TAP_2670
*14356 TAP_2671
*14357 TAP_2672
*14358 TAP_2673
*14359 TAP_2674
*14360 TAP_2675
*14361 TAP_2676
*14362 TAP_2677
*14363 TAP_2678
*14364 TAP_2679
*14365 TAP_2680
*14366 TAP_2681
*14367 TAP_2682
*14368 TAP_2683
*14369 TAP_2684
*14370 TAP_2685
*14371 TAP_2686
*14372 TAP_2687
*14373 TAP_2688
*14374 TAP_2689
*14375 TAP_2690
*14376 TAP_2691
*14377 TAP_2692
*14378 TAP_2693
*14379 TAP_2694
*14380 TAP_2695
*14381 TAP_2696
*14382 TAP_2697
*14383 TAP_2698
*14384 TAP_2699
*14385 TAP_2700
*14386 TAP_2701
*14387 TAP_2702
*14388 TAP_2703
*14389 TAP_2704
*14390 TAP_2705
*14391 TAP_2706
*14392 TAP_2707
*14393 TAP_2708
*14394 TAP_2709
*14395 TAP_2710
*14396 TAP_2711
*14397 TAP_2712
*14398 TAP_2713
*14399 TAP_2714
*14400 TAP_2715
*14401 TAP_2716
*14402 TAP_2717
*14403 TAP_2718
*14404 TAP_2719
*14405 TAP_2720
*14406 TAP_2721
*14407 TAP_2722
*14408 TAP_2723
*14409 TAP_2724
*14410 TAP_2725
*14411 TAP_2726
*14412 TAP_2727
*14413 TAP_2728
*14414 TAP_2729
*14415 TAP_2730
*14416 TAP_2731
*14417 TAP_2732
*14418 TAP_2733
*14419 TAP_2734
*14420 TAP_2735
*14421 TAP_2736
*14422 TAP_2737
*14423 TAP_2738
*14424 TAP_2739
*14425 TAP_2740
*14426 TAP_2741
*14427 TAP_2742
*14428 TAP_2743
*14429 TAP_2744
*14430 TAP_2745
*14431 TAP_2746
*14432 TAP_2747
*14433 TAP_2748
*14434 TAP_2749
*14435 TAP_2750
*14436 TAP_2751
*14437 TAP_2752
*14438 TAP_2753
*14439 TAP_2754
*14440 TAP_2755
*14441 TAP_2756
*14442 TAP_2757
*14443 TAP_2758
*14444 TAP_2759
*14445 TAP_2760
*14446 TAP_2761
*14447 TAP_2762
*14448 TAP_2763
*14449 TAP_2764
*14450 TAP_2765
*14451 TAP_2766
*14452 TAP_2767
*14453 TAP_2768
*14454 TAP_2769
*14455 TAP_2770
*14456 TAP_2771
*14457 TAP_2772
*14458 TAP_2773
*14459 TAP_2774
*14460 TAP_2775
*14461 TAP_2776
*14462 TAP_2777
*14463 TAP_2778
*14464 TAP_2779
*14465 TAP_2780
*14466 TAP_2781
*14467 TAP_2782
*14468 TAP_2783
*14469 TAP_2784
*14470 TAP_2785
*14471 TAP_2786
*14472 TAP_2787
*14473 TAP_2788
*14474 TAP_2789
*14475 TAP_2790
*14476 TAP_2791
*14477 TAP_2792
*14478 TAP_2793
*14479 TAP_2794
*14480 TAP_2795
*14481 TAP_2796
*14482 TAP_2797
*14483 TAP_2798
*14484 TAP_2799
*14485 TAP_2800
*14486 TAP_2801
*14487 TAP_2802
*14488 TAP_2803
*14489 TAP_2804
*14490 TAP_2805
*14491 TAP_2806
*14492 TAP_2807
*14493 TAP_2808
*14494 TAP_2809
*14495 TAP_2810
*14496 TAP_2811
*14497 TAP_2812
*14498 TAP_2813
*14499 TAP_2814
*14500 TAP_2815
*14501 TAP_2816
*14502 TAP_2817
*14503 TAP_2818
*14504 TAP_2819
*14505 TAP_2820
*14506 TAP_2821
*14507 TAP_2822
*14508 TAP_2823
*14509 TAP_2824
*14510 TAP_2825
*14511 TAP_2826
*14512 TAP_2827
*14513 TAP_2828
*14514 TAP_2829
*14515 TAP_2830
*14516 TAP_2831
*14517 TAP_2832
*14518 TAP_2833
*14519 TAP_2834
*14520 TAP_2835
*14521 TAP_2836
*14522 TAP_2837
*14523 TAP_2838
*14524 TAP_2839
*14525 TAP_2840
*14526 TAP_2841
*14527 TAP_2842
*14528 TAP_2843
*14529 TAP_2844
*14530 TAP_2845
*14531 TAP_2846
*14532 TAP_2847
*14533 TAP_2848
*14534 TAP_2849
*14535 TAP_2850
*14536 TAP_2851
*14537 TAP_2852
*14538 TAP_2853
*14539 TAP_2854
*14540 TAP_2855
*14541 TAP_2856
*14542 TAP_2857
*14543 TAP_2858
*14544 TAP_2859
*14545 TAP_2860
*14546 TAP_2861
*14547 TAP_2862
*14548 TAP_2863
*14549 TAP_2864
*14550 TAP_2865
*14551 TAP_2866
*14552 TAP_2867
*14553 TAP_2868
*14554 TAP_2869
*14555 TAP_2870
*14556 TAP_2871
*14557 TAP_2872
*14558 TAP_2873
*14559 TAP_2874
*14560 TAP_2875
*14561 TAP_2876
*14562 TAP_2877
*14563 TAP_2878
*14564 TAP_2879
*14565 TAP_2880
*14566 TAP_2881
*14567 TAP_2882
*14568 TAP_2883
*14569 TAP_2884
*14570 TAP_2885
*14571 TAP_2886
*14572 TAP_2887
*14573 TAP_2888
*14574 TAP_2889
*14575 TAP_2890
*14576 TAP_2891
*14577 TAP_2892
*14578 TAP_2893
*14579 TAP_2894
*14580 TAP_2895
*14581 TAP_2896
*14582 TAP_2897
*14583 TAP_2898
*14584 TAP_2899
*14585 TAP_2900
*14586 TAP_2901
*14587 TAP_2902
*14588 TAP_2903
*14589 TAP_2904
*14590 TAP_2905
*14591 TAP_2906
*14592 TAP_2907
*14593 TAP_2908
*14594 TAP_2909
*14595 TAP_2910
*14596 TAP_2911
*14597 TAP_2912
*14598 TAP_2913
*14599 TAP_2914
*14600 TAP_2915
*14601 TAP_2916
*14602 TAP_2917
*14603 TAP_2918
*14604 TAP_2919
*14605 TAP_2920
*14606 TAP_2921
*14607 TAP_2922
*14608 TAP_2923
*14609 TAP_2924
*14610 TAP_2925
*14611 TAP_2926
*14612 TAP_2927
*14613 TAP_2928
*14614 TAP_2929
*14615 TAP_2930
*14616 TAP_2931
*14617 TAP_2932
*14618 TAP_2933
*14619 TAP_2934
*14620 TAP_2935
*14621 TAP_2936
*14622 TAP_2937
*14623 TAP_2938
*14624 TAP_2939
*14625 TAP_2940
*14626 TAP_2941
*14627 TAP_2942
*14628 TAP_2943
*14629 TAP_2944
*14630 TAP_2945
*14631 TAP_2946
*14632 TAP_2947
*14633 TAP_2948
*14634 TAP_2949
*14635 TAP_2950
*14636 TAP_2951
*14637 TAP_2952
*14638 TAP_2953
*14639 TAP_2954
*14640 TAP_2955
*14641 TAP_2956
*14642 TAP_2957
*14643 TAP_2958
*14644 TAP_2959
*14645 TAP_2960
*14646 TAP_2961
*14647 TAP_2962
*14648 TAP_2963
*14649 TAP_2964
*14650 TAP_2965
*14651 TAP_2966
*14652 clkbuf_0_clk
*14653 clkbuf_1_0__f_clk
*14654 clkbuf_1_1__f_clk
*14655 input1
*14656 input10
*14657 input100
*14658 input101
*14659 input102
*14660 input103
*14661 input104
*14662 input105
*14663 input106
*14664 input107
*14665 input108
*14666 input109
*14667 input11
*14668 input110
*14669 input111
*14670 input112
*14671 input113
*14672 input114
*14673 input115
*14674 input116
*14675 input117
*14676 input118
*14677 input119
*14678 input12
*14679 input120
*14680 input121
*14681 input122
*14682 input123
*14683 input124
*14684 input125
*14685 input126
*14686 input127
*14687 input128
*14688 input129
*14689 input13
*14690 input130
*14691 input131
*14692 input132
*14693 input133
*14694 input134
*14695 input135
*14696 input136
*14697 input137
*14698 input138
*14699 input139
*14700 input14
*14701 input140
*14702 input141
*14703 input142
*14704 input143
*14705 input144
*14706 input145
*14707 input146
*14708 input147
*14709 input148
*14710 input149
*14711 input15
*14712 input150
*14713 input151
*14714 input152
*14715 input153
*14716 input154
*14717 input155
*14718 input156
*14719 input157
*14720 input158
*14721 input159
*14722 input16
*14723 input160
*14724 input161
*14725 input162
*14726 input163
*14727 input164
*14728 input17
*14729 input18
*14730 input19
*14731 input2
*14732 input20
*14733 input21
*14734 input22
*14735 input23
*14736 input24
*14737 input25
*14738 input26
*14739 input27
*14740 input28
*14741 input29
*14742 input3
*14743 input30
*14744 input31
*14745 input32
*14746 input33
*14747 input34
*14748 input35
*14749 input36
*14750 input37
*14751 input38
*14752 input39
*14753 input4
*14754 input40
*14755 input41
*14756 input42
*14757 input43
*14758 input44
*14759 input45
*14760 input46
*14761 input47
*14762 input48
*14763 input49
*14764 input5
*14765 input50
*14766 input51
*14767 input52
*14768 input53
*14769 input54
*14770 input55
*14771 input56
*14772 input57
*14773 input58
*14774 input59
*14775 input6
*14776 input60
*14777 input61
*14778 input62
*14779 input63
*14780 input64
*14781 input65
*14782 input66
*14783 input67
*14784 input68
*14785 input69
*14786 input7
*14787 input70
*14788 input71
*14789 input72
*14790 input73
*14791 input74
*14792 input75
*14793 input76
*14794 input77
*14795 input78
*14796 input79
*14797 input8
*14798 input80
*14799 input81
*14800 input82
*14801 input83
*14802 input84
*14803 input85
*14804 input86
*14805 input87
*14806 input88
*14807 input89
*14808 input9
*14809 input90
*14810 input91
*14811 input92
*14812 input93
*14813 input94
*14814 input95
*14815 input96
*14816 input97
*14817 input98
*14818 input99
*14819 output165
*14820 output166
*14821 output167
*14822 output168
*14823 output169
*14824 output170
*14825 output171
*14826 output172
*14827 output173
*14828 output174
*14829 output175
*14830 output176
*14831 output177
*14832 output178
*14833 output179
*14834 output180
*14835 output181
*14836 output182
*14837 output183
*14838 output184
*14839 output185
*14840 output186
*14841 output187
*14842 output188
*14843 output189
*14844 output190
*14845 output191
*14846 output192
*14847 output193
*14848 output194
*14849 output195
*14850 output196
*14851 output197
*14852 output198
*14853 output199
*14854 output200
*14855 output201
*14856 output202
*14857 output203
*14858 output204
*14859 output205
*14860 output206
*14861 output207
*14862 output208
*14863 output209
*14864 output210
*14865 output211
*14866 output212
*14867 output213
*14868 output214
*14869 output215
*14870 output216
*14871 output217
*14872 output218
*14873 output219
*14874 output220
*14875 output221
*14876 output222
*14877 output223
*14878 output224
*14879 output225
*14880 output226
*14881 output227
*14882 output228
*14883 output229
*14884 output230
*14885 u_pe00
*14886 u_pe01
*14887 u_pe10
*14888 u_pe11

*PORTS
act_row0_in[0] I
act_row0_in[10] I
act_row0_in[11] I
act_row0_in[12] I
act_row0_in[13] I
act_row0_in[14] I
act_row0_in[15] I
act_row0_in[1] I
act_row0_in[2] I
act_row0_in[3] I
act_row0_in[4] I
act_row0_in[5] I
act_row0_in[6] I
act_row0_in[7] I
act_row0_in[8] I
act_row0_in[9] I
act_row1_in[0] I
act_row1_in[10] I
act_row1_in[11] I
act_row1_in[12] I
act_row1_in[13] I
act_row1_in[14] I
act_row1_in[15] I
act_row1_in[1] I
act_row1_in[2] I
act_row1_in[3] I
act_row1_in[4] I
act_row1_in[5] I
act_row1_in[6] I
act_row1_in[7] I
act_row1_in[8] I
act_row1_in[9] I
clk I
load_weight I
psum_col0_in[0] I
psum_col0_in[10] I
psum_col0_in[11] I
psum_col0_in[12] I
psum_col0_in[13] I
psum_col0_in[14] I
psum_col0_in[15] I
psum_col0_in[16] I
psum_col0_in[17] I
psum_col0_in[18] I
psum_col0_in[19] I
psum_col0_in[1] I
psum_col0_in[20] I
psum_col0_in[21] I
psum_col0_in[22] I
psum_col0_in[23] I
psum_col0_in[24] I
psum_col0_in[25] I
psum_col0_in[26] I
psum_col0_in[27] I
psum_col0_in[28] I
psum_col0_in[29] I
psum_col0_in[2] I
psum_col0_in[30] I
psum_col0_in[31] I
psum_col0_in[3] I
psum_col0_in[4] I
psum_col0_in[5] I
psum_col0_in[6] I
psum_col0_in[7] I
psum_col0_in[8] I
psum_col0_in[9] I
psum_col0_out[0] O
psum_col0_out[10] O
psum_col0_out[11] O
psum_col0_out[12] O
psum_col0_out[13] O
psum_col0_out[14] O
psum_col0_out[15] O
psum_col0_out[16] O
psum_col0_out[17] O
psum_col0_out[18] O
psum_col0_out[19] O
psum_col0_out[1] O
psum_col0_out[20] O
psum_col0_out[21] O
psum_col0_out[22] O
psum_col0_out[23] O
psum_col0_out[24] O
psum_col0_out[25] O
psum_col0_out[26] O
psum_col0_out[27] O
psum_col0_out[28] O
psum_col0_out[29] O
psum_col0_out[2] O
psum_col0_out[30] O
psum_col0_out[31] O
psum_col0_out[3] O
psum_col0_out[4] O
psum_col0_out[5] O
psum_col0_out[6] O
psum_col0_out[7] O
psum_col0_out[8] O
psum_col0_out[9] O
psum_col1_in[0] I
psum_col1_in[10] I
psum_col1_in[11] I
psum_col1_in[12] I
psum_col1_in[13] I
psum_col1_in[14] I
psum_col1_in[15] I
psum_col1_in[16] I
psum_col1_in[17] I
psum_col1_in[18] I
psum_col1_in[19] I
psum_col1_in[1] I
psum_col1_in[20] I
psum_col1_in[21] I
psum_col1_in[22] I
psum_col1_in[23] I
psum_col1_in[24] I
psum_col1_in[25] I
psum_col1_in[26] I
psum_col1_in[27] I
psum_col1_in[28] I
psum_col1_in[29] I
psum_col1_in[2] I
psum_col1_in[30] I
psum_col1_in[31] I
psum_col1_in[3] I
psum_col1_in[4] I
psum_col1_in[5] I
psum_col1_in[6] I
psum_col1_in[7] I
psum_col1_in[8] I
psum_col1_in[9] I
psum_col1_out[0] O
psum_col1_out[10] O
psum_col1_out[11] O
psum_col1_out[12] O
psum_col1_out[13] O
psum_col1_out[14] O
psum_col1_out[15] O
psum_col1_out[16] O
psum_col1_out[17] O
psum_col1_out[18] O
psum_col1_out[19] O
psum_col1_out[1] O
psum_col1_out[20] O
psum_col1_out[21] O
psum_col1_out[22] O
psum_col1_out[23] O
psum_col1_out[24] O
psum_col1_out[25] O
psum_col1_out[26] O
psum_col1_out[27] O
psum_col1_out[28] O
psum_col1_out[29] O
psum_col1_out[2] O
psum_col1_out[30] O
psum_col1_out[31] O
psum_col1_out[3] O
psum_col1_out[4] O
psum_col1_out[5] O
psum_col1_out[6] O
psum_col1_out[7] O
psum_col1_out[8] O
psum_col1_out[9] O
rst_n I
valid_row0_in I
valid_row0_out O
valid_row1_in I
valid_row1_out O
w00[0] I
w00[10] I
w00[11] I
w00[12] I
w00[13] I
w00[14] I
w00[15] I
w00[1] I
w00[2] I
w00[3] I
w00[4] I
w00[5] I
w00[6] I
w00[7] I
w00[8] I
w00[9] I
w01[0] I
w01[10] I
w01[11] I
w01[12] I
w01[13] I
w01[14] I
w01[15] I
w01[1] I
w01[2] I
w01[3] I
w01[4] I
w01[5] I
w01[6] I
w01[7] I
w01[8] I
w01[9] I
w10[0] I
w10[10] I
w10[11] I
w10[12] I
w10[13] I
w10[14] I
w10[15] I
w10[1] I
w10[2] I
w10[3] I
w10[4] I
w10[5] I
w10[6] I
w10[7] I
w10[8] I
w10[9] I
w11[0] I
w11[10] I
w11[11] I
w11[12] I
w11[13] I
w11[14] I
w11[15] I
w11[1] I
w11[2] I
w11[3] I
w11[4] I
w11[5] I
w11[6] I
w11[7] I
w11[8] I
w11[9] I

*D_NET *3 0.00207729
*CONN
*P act_row0_in[0] I
*I *675:DIODE I *D sky130_fd_sc_hd__diode_2
*I *14655:A I *D sky130_fd_sc_hd__clkbuf_4
*CAP
1 act_row0_in[0] 0.000862388
2 *675:DIODE 0.000176259
3 *14655:A 0
4 *3:13 0.00103865
*RES
1 act_row0_in[0] *3:13 31.3119 
2 *3:13 *14655:A 23 
3 *3:13 *675:DIODE 26.48 
*END

*D_NET *4 0.00225574
*CONN
*P act_row0_in[10] I
*I *686:DIODE I *D sky130_fd_sc_hd__diode_2
*I *14731:A I *D sky130_fd_sc_hd__clkbuf_4
*CAP
1 act_row0_in[10] 0.000862931
2 *686:DIODE 0.000202499
3 *14731:A 0
4 *4:13 0.00106543
5 *686:DIODE *412:8 4.39278e-05
6 *4:13 *313:10 8.09487e-05
*RES
1 act_row0_in[10] *4:13 30.6077 
2 *4:13 *14731:A 23 
3 *4:13 *686:DIODE 26.48 
*END

*D_NET *5 0.00212471
*CONN
*P act_row0_in[11] I
*I *697:DIODE I *D sky130_fd_sc_hd__diode_2
*I *14742:A I *D sky130_fd_sc_hd__clkbuf_4
*CAP
1 act_row0_in[11] 0.000852707
2 *697:DIODE 0.000193505
3 *14742:A 0
4 *5:13 0.00104621
5 *697:DIODE *454:10 3.22879e-05
*RES
1 act_row0_in[11] *5:13 36.1524 
2 *5:13 *14742:A 23 
3 *5:13 *697:DIODE 26.48 
*END

*D_NET *6 0.00238745
*CONN
*P act_row0_in[12] I
*I *708:DIODE I *D sky130_fd_sc_hd__diode_2
*I *14753:A I *D sky130_fd_sc_hd__clkbuf_4
*CAP
1 act_row0_in[12] 0.000914408
2 *708:DIODE 0.000160401
3 *14753:A 0
4 *6:13 0.00107481
5 *708:DIODE *349:14 0.000181125
6 *708:DIODE *465:8 5.67058e-05
*RES
1 act_row0_in[12] *6:13 37.5609 
2 *6:13 *14753:A 23 
3 *6:13 *708:DIODE 26.48 
*END

*D_NET *7 0.00214041
*CONN
*P act_row0_in[13] I
*I *719:DIODE I *D sky130_fd_sc_hd__diode_2
*I *14764:A I *D sky130_fd_sc_hd__clkbuf_4
*CAP
1 act_row0_in[13] 0.000822513
2 *719:DIODE 0.000199451
3 *14764:A 0
4 *7:13 0.00102196
5 *719:DIODE *476:6 5.97984e-05
6 *7:13 *313:10 3.66799e-05
*RES
1 act_row0_in[13] *7:13 29.5512 
2 *7:13 *14764:A 23 
3 *7:13 *719:DIODE 26.48 
*END

*D_NET *8 0.00227041
*CONN
*P act_row0_in[14] I
*I *730:DIODE I *D sky130_fd_sc_hd__diode_2
*I *14775:A I *D sky130_fd_sc_hd__clkbuf_4
*CAP
1 act_row0_in[14] 0.000871528
2 *730:DIODE 0.000232422
3 *14775:A 0
4 *8:13 0.00110395
5 *730:DIODE *487:8 1.57322e-05
6 *8:13 *487:8 4.67813e-05
*RES
1 act_row0_in[14] *8:13 36.8566 
2 *8:13 *14775:A 23 
3 *8:13 *730:DIODE 26.48 
*END

*D_NET *9 0.00218222
*CONN
*P act_row0_in[15] I
*I *741:DIODE I *D sky130_fd_sc_hd__diode_2
*I *14786:A I *D sky130_fd_sc_hd__clkbuf_4
*CAP
1 act_row0_in[15] 0.000866538
2 *741:DIODE 0.000224573
3 *14786:A 0
4 *9:13 0.00109111
*RES
1 act_row0_in[15] *9:13 36.1524 
2 *9:13 *14786:A 23 
3 *9:13 *741:DIODE 26.48 
*END

*D_NET *10 0.00199951
*CONN
*P act_row0_in[1] I
*I *752:DIODE I *D sky130_fd_sc_hd__diode_2
*I *14797:A I *D sky130_fd_sc_hd__clkbuf_4
*CAP
1 act_row0_in[1] 0.000788832
2 *752:DIODE 0.000210924
3 *14797:A 0
4 *10:13 0.000999756
*RES
1 act_row0_in[1] *10:13 35.4481 
2 *10:13 *14797:A 23 
3 *10:13 *752:DIODE 26.48 
*END

*D_NET *11 0.00212498
*CONN
*P act_row0_in[2] I
*I *763:DIODE I *D sky130_fd_sc_hd__diode_2
*I *14808:A I *D sky130_fd_sc_hd__clkbuf_4
*CAP
1 act_row0_in[2] 0.000848469
2 *763:DIODE 0.000185412
3 *14808:A 0
4 *11:13 0.00103388
5 *763:DIODE *520:6 5.72217e-05
6 *11:13 *301:12 0
*RES
1 act_row0_in[2] *11:13 30.6077 
2 *11:13 *14808:A 23 
3 *11:13 *763:DIODE 26.48 
*END

*D_NET *12 0.00203788
*CONN
*P act_row0_in[3] I
*I *610:DIODE I *D sky130_fd_sc_hd__diode_2
*I *14656:A I *D sky130_fd_sc_hd__clkbuf_4
*CAP
1 act_row0_in[3] 0.000810186
2 *610:DIODE 0.000155478
3 *14656:A 0
4 *12:13 0.000965665
5 *610:DIODE *302:6 0.00010655
*RES
1 act_row0_in[3] *12:13 36.1524 
2 *12:13 *14656:A 23 
3 *12:13 *610:DIODE 26.48 
*END

*D_NET *13 0.00217738
*CONN
*P act_row0_in[4] I
*I *621:DIODE I *D sky130_fd_sc_hd__diode_2
*I *14667:A I *D sky130_fd_sc_hd__clkbuf_4
*CAP
1 act_row0_in[4] 0.000821871
2 *621:DIODE 0.000185042
3 *14667:A 0
4 *13:13 0.00100691
5 *621:DIODE *313:8 3.22465e-05
6 *13:13 *313:8 0.000131304
*RES
1 act_row0_in[4] *13:13 37.5609 
2 *13:13 *14667:A 23 
3 *13:13 *621:DIODE 26.48 
*END

*D_NET *14 0.00203562
*CONN
*P act_row0_in[5] I
*I *632:DIODE I *D sky130_fd_sc_hd__diode_2
*I *14678:A I *D sky130_fd_sc_hd__clkbuf_4
*CAP
1 act_row0_in[5] 0.000803786
2 *632:DIODE 0.000185412
3 *14678:A 0
4 *14:13 0.000989199
5 *632:DIODE *324:8 5.72217e-05
*RES
1 act_row0_in[5] *14:13 35.4481 
2 *14:13 *14678:A 23 
3 *14:13 *632:DIODE 26.48 
*END

*D_NET *15 0.00215902
*CONN
*P act_row0_in[6] I
*I *643:DIODE I *D sky130_fd_sc_hd__diode_2
*I *14689:A I *D sky130_fd_sc_hd__clkbuf_4
*CAP
1 act_row0_in[6] 0.000865487
2 *643:DIODE 0.000185412
3 *14689:A 0
4 *15:13 0.0010509
5 *643:DIODE *335:8 5.72217e-05
*RES
1 act_row0_in[6] *15:13 36.8566 
2 *15:13 *14689:A 23 
3 *15:13 *643:DIODE 26.48 
*END

*D_NET *16 0.0020518
*CONN
*P act_row0_in[7] I
*I *654:DIODE I *D sky130_fd_sc_hd__diode_2
*I *14700:A I *D sky130_fd_sc_hd__clkbuf_4
*CAP
1 act_row0_in[7] 0.000825141
2 *654:DIODE 0.000184614
3 *14700:A 0
4 *16:13 0.00100975
5 *654:DIODE *346:10 3.22879e-05
*RES
1 act_row0_in[7] *16:13 36.1524 
2 *16:13 *14700:A 23 
3 *16:13 *654:DIODE 26.48 
*END

*D_NET *17 0.00219363
*CONN
*P act_row0_in[8] I
*I *665:DIODE I *D sky130_fd_sc_hd__diode_2
*I *14711:A I *D sky130_fd_sc_hd__clkbuf_4
*CAP
1 act_row0_in[8] 0.00085475
2 *665:DIODE 0.000185042
3 *14711:A 0
4 *17:13 0.00103979
5 *665:DIODE *357:8 3.22465e-05
6 *17:13 *357:8 8.1796e-05
*RES
1 act_row0_in[8] *17:13 37.5609 
2 *17:13 *14711:A 23 
3 *17:13 *665:DIODE 26.48 
*END

*D_NET *18 0.00205911
*CONN
*P act_row0_in[9] I
*I *671:DIODE I *D sky130_fd_sc_hd__diode_2
*I *14722:A I *D sky130_fd_sc_hd__clkbuf_4
*CAP
1 act_row0_in[9] 0.000817403
2 *671:DIODE 0.000203481
3 *14722:A 0
4 *18:13 0.00102088
5 *671:DIODE *368:12 1.73399e-05
*RES
1 act_row0_in[9] *18:13 35.4481 
2 *18:13 *14722:A 23 
3 *18:13 *671:DIODE 26.48 
*END

*D_NET *19 0.00214507
*CONN
*P act_row1_in[0] I
*I *672:DIODE I *D sky130_fd_sc_hd__diode_2
*I *14728:A I *D sky130_fd_sc_hd__buf_1
*CAP
1 act_row1_in[0] 0.000900851
2 *672:DIODE 0.00013452
3 *14728:A 0
4 *19:13 0.00103537
5 *672:DIODE *379:10 7.43308e-05
*RES
1 act_row1_in[0] *19:13 37.0845 
2 *19:13 *14728:A 23 
3 *19:13 *672:DIODE 25.5271 
*END

*D_NET *20 0.00215316
*CONN
*P act_row1_in[10] I
*I *673:DIODE I *D sky130_fd_sc_hd__diode_2
*I *14729:A I *D sky130_fd_sc_hd__buf_1
*CAP
1 act_row1_in[10] 0.000843734
2 *673:DIODE 0.000165899
3 *14729:A 0
4 *20:15 0.00100963
5 *20:15 *487:10 0.000133892
*RES
1 act_row1_in[10] *20:15 29.8472 
2 *20:15 *14729:A 23 
3 *20:15 *673:DIODE 25.5271 
*END

*D_NET *21 0.00198546
*CONN
*P act_row1_in[11] I
*I *674:DIODE I *D sky130_fd_sc_hd__diode_2
*I *14730:A I *D sky130_fd_sc_hd__buf_1
*CAP
1 act_row1_in[11] 0.000828886
2 *674:DIODE 0.000141265
3 *14730:A 0
4 *21:15 0.000970151
5 *674:DIODE *401:8 4.51585e-05
*RES
1 act_row1_in[11] *21:15 35.8209 
2 *21:15 *14730:A 23 
3 *21:15 *674:DIODE 25.5271 
*END

*D_NET *22 0.0021029
*CONN
*P act_row1_in[12] I
*I *676:DIODE I *D sky130_fd_sc_hd__diode_2
*I *14732:A I *D sky130_fd_sc_hd__buf_1
*CAP
1 act_row1_in[12] 0.000887605
2 *676:DIODE 0.000141265
3 *14732:A 0
4 *22:13 0.00102887
5 *676:DIODE *413:8 4.51585e-05
*RES
1 act_row1_in[12] *22:13 37.0845 
2 *22:13 *14732:A 23 
3 *22:13 *676:DIODE 25.5271 
*END

*D_NET *23 0.00203763
*CONN
*P act_row1_in[13] I
*I *677:DIODE I *D sky130_fd_sc_hd__diode_2
*I *14733:A I *D sky130_fd_sc_hd__buf_1
*CAP
1 act_row1_in[13] 0.000794338
2 *677:DIODE 0.000124734
3 *14733:A 2.34823e-05
4 *23:13 0.000942554
5 *677:DIODE *424:8 0.000139692
6 *23:13 *487:10 1.28274e-05
*RES
1 act_row1_in[13] *23:13 28.7227 
2 *23:13 *14733:A 23.4971 
3 *23:13 *677:DIODE 25.5271 
*END

*D_NET *24 0.00212987
*CONN
*P act_row1_in[14] I
*I *678:DIODE I *D sky130_fd_sc_hd__diode_2
*I *14734:A I *D sky130_fd_sc_hd__buf_1
*CAP
1 act_row1_in[14] 0.00087218
2 *678:DIODE 0.00012291
3 *14734:A 0
4 *24:13 0.00099509
5 *678:DIODE *435:8 0.000139692
*RES
1 act_row1_in[14] *24:13 36.7324 
2 *24:13 *14734:A 23 
3 *24:13 *678:DIODE 25.5271 
*END

*D_NET *25 0.00229764
*CONN
*P act_row1_in[15] I
*I *14735:A I *D sky130_fd_sc_hd__dlymetal6s2s_1
*I *679:DIODE I *D sky130_fd_sc_hd__diode_2
*CAP
1 act_row1_in[15] 0.000664196
2 *14735:A 0.000142369
3 *679:DIODE 0.000342255
4 *25:13 0.00114882
*RES
1 act_row1_in[15] *25:13 33.4181 
2 *25:13 *679:DIODE 27.9093 
3 *25:13 *14735:A 25.0507 
*END

*D_NET *26 0.0020712
*CONN
*P act_row1_in[1] I
*I *680:DIODE I *D sky130_fd_sc_hd__diode_2
*I *14736:A I *D sky130_fd_sc_hd__buf_1
*CAP
1 act_row1_in[1] 0.000817039
2 *680:DIODE 0.000124611
3 *14736:A 2.34823e-05
4 *26:13 0.000965132
5 *680:DIODE *448:8 0.000140939
*RES
1 act_row1_in[1] *26:13 34.9716 
2 *26:13 *14736:A 23.4971 
3 *26:13 *680:DIODE 25.5271 
*END

*D_NET *27 0.0020881
*CONN
*P act_row1_in[2] I
*I *681:DIODE I *D sky130_fd_sc_hd__diode_2
*I *14737:A I *D sky130_fd_sc_hd__buf_1
*CAP
1 act_row1_in[2] 0.000852651
2 *681:DIODE 0.000131219
3 *14737:A 0
4 *27:15 0.000983869
5 *681:DIODE *449:8 7.43308e-05
6 *27:15 *487:10 4.60289e-05
*RES
1 act_row1_in[2] *27:15 30.6284 
2 *27:15 *14737:A 23 
3 *27:15 *681:DIODE 25.5271 
*END

*D_NET *28 0.00198585
*CONN
*P act_row1_in[3] I
*I *682:DIODE I *D sky130_fd_sc_hd__diode_2
*I *14738:A I *D sky130_fd_sc_hd__buf_1
*CAP
1 act_row1_in[3] 0.000828886
2 *682:DIODE 0.00014081
3 *14738:A 0
4 *28:15 0.000969696
5 *682:DIODE *450:8 4.64608e-05
*RES
1 act_row1_in[3] *28:15 35.8209 
2 *28:15 *14738:A 23 
3 *28:15 *682:DIODE 25.5271 
*END

*D_NET *29 0.00207632
*CONN
*P act_row1_in[4] I
*I *683:DIODE I *D sky130_fd_sc_hd__diode_2
*I *14739:A I *D sky130_fd_sc_hd__buf_1
*CAP
1 act_row1_in[4] 0.000887605
2 *683:DIODE 0.000126121
3 *14739:A 0
4 *29:13 0.00101373
5 *683:DIODE *451:6 4.88684e-05
*RES
1 act_row1_in[4] *29:13 37.0845 
2 *29:13 *14739:A 23 
3 *29:13 *683:DIODE 25.5271 
*END

*D_NET *30 0.00204698
*CONN
*P act_row1_in[5] I
*I *684:DIODE I *D sky130_fd_sc_hd__diode_2
*I *14740:A I *D sky130_fd_sc_hd__buf_1
*CAP
1 act_row1_in[5] 0.000794338
2 *684:DIODE 0.000105558
3 *14740:A 2.34823e-05
4 *30:13 0.000923378
5 *684:DIODE *452:6 4.64608e-05
6 *684:DIODE *457:12 0.000140939
7 *30:13 *487:10 1.28274e-05
*RES
1 act_row1_in[5] *30:13 28.7227 
2 *30:13 *14740:A 23.4971 
3 *30:13 *684:DIODE 25.5271 
*END

*D_NET *31 0.00210873
*CONN
*P act_row1_in[6] I
*I *685:DIODE I *D sky130_fd_sc_hd__diode_2
*I *14741:A I *D sky130_fd_sc_hd__buf_1
*CAP
1 act_row1_in[6] 0.00087218
2 *685:DIODE 0.000145017
3 *14741:A 0
4 *31:13 0.0010172
5 *685:DIODE *453:8 7.43308e-05
*RES
1 act_row1_in[6] *31:13 36.7324 
2 *31:13 *14741:A 23 
3 *31:13 *685:DIODE 25.5271 
*END

*D_NET *32 0.00201345
*CONN
*P act_row1_in[7] I
*I *687:DIODE I *D sky130_fd_sc_hd__diode_2
*I *14743:A I *D sky130_fd_sc_hd__buf_1
*CAP
1 act_row1_in[7] 0.000828886
2 *687:DIODE 0.000154608
3 *14743:A 0
4 *32:15 0.000983495
5 *687:DIODE *455:8 4.64608e-05
*RES
1 act_row1_in[7] *32:15 35.8209 
2 *32:15 *14743:A 23 
3 *32:15 *687:DIODE 25.5271 
*END

*D_NET *33 0.0021623
*CONN
*P act_row1_in[8] I
*I *688:DIODE I *D sky130_fd_sc_hd__diode_2
*I *14744:A I *D sky130_fd_sc_hd__buf_1
*CAP
1 act_row1_in[8] 0.000887605
2 *688:DIODE 0.000130127
3 *14744:A 0
4 *33:13 0.00101773
5 *688:DIODE *446:12 5.25022e-05
6 *688:DIODE *456:8 7.43308e-05
*RES
1 act_row1_in[8] *33:13 37.0845 
2 *33:13 *14744:A 23 
3 *33:13 *688:DIODE 25.5271 
*END

*D_NET *34 0.00201262
*CONN
*P act_row1_in[9] I
*I *689:DIODE I *D sky130_fd_sc_hd__diode_2
*I *14745:A I *D sky130_fd_sc_hd__buf_1
*CAP
1 act_row1_in[9] 0.000819324
2 *689:DIODE 0.000186988
3 *14745:A 0
4 *34:17 0.00100631
*RES
1 act_row1_in[9] *34:17 35.6138 
2 *34:17 *14745:A 23 
3 *34:17 *689:DIODE 25.5271 
*END

*D_NET *35 0.107582
*CONN
*P clk I
*I *14652:A I *D sky130_fd_sc_hd__clkbuf_16
*I *597:DIODE I *D sky130_fd_sc_hd__diode_2
*CAP
1 clk 0.00453119
2 *14652:A 0.00014765
3 *597:DIODE 0
4 *35:19 0.000418277
5 *35:13 0.0248569
6 *35:11 0.0245863
7 *35:9 0.0127637
8 *35:7 0.0172949
9 *35:9 *445:9 0.00584829
10 *35:13 *321:14 0.000167499
11 *35:13 *323:6 0.00684679
12 *35:13 *329:16 0.000133446
13 *35:13 *331:18 0.000136684
14 *35:13 *334:18 0.000133446
15 *35:13 *336:22 0.00484705
16 *35:13 *358:14 0.00466676
17 *35:19 *14887:psum_in[22] 0.000202816
*RES
1 clk *35:7 22.4536 
2 *35:7 *35:9 49.0523 
3 *35:9 *35:11 8 
4 *35:11 *35:13 67.676 
5 *35:13 *35:19 30.3639 
6 *35:19 *597:DIODE 23 
7 *35:19 *14652:A 25.5479 
*END

*D_NET *36 0.00187274
*CONN
*P load_weight I
*I *690:DIODE I *D sky130_fd_sc_hd__diode_2
*I *14746:A I *D sky130_fd_sc_hd__clkbuf_16
*CAP
1 load_weight 0.000794714
2 *690:DIODE 0
3 *14746:A 0
4 *36:23 0.000141654
5 *36:17 0.000936369
6 *36:23 *447:19 0
*RES
1 load_weight *36:17 34.3562 
2 *36:17 *36:23 32.61 
3 *36:23 *14746:A 23 
4 *36:17 *690:DIODE 23 
*END

*D_NET *37 0.00307995
*CONN
*P psum_col0_in[0] I
*I *691:DIODE I *D sky130_fd_sc_hd__diode_2
*I *14747:A I *D sky130_fd_sc_hd__buf_1
*CAP
1 psum_col0_in[0] 0.00129996
2 *691:DIODE 0.000119726
3 *14747:A 0
4 *37:11 0.00141969
5 *691:DIODE *459:8 7.88926e-05
6 *37:11 *207:13 0
7 *37:11 *208:15 0.000161682
*RES
1 psum_col0_in[0] *37:11 43.3993 
2 *37:11 *14747:A 23 
3 *37:11 *691:DIODE 25.5271 
*END

*D_NET *38 0.00143282
*CONN
*P psum_col0_in[10] I
*I *692:DIODE I *D sky130_fd_sc_hd__diode_2
*I *14748:A I *D sky130_fd_sc_hd__buf_1
*CAP
1 psum_col0_in[10] 0.00062621
2 *692:DIODE 0
3 *14748:A 9.02011e-05
4 *38:7 0.000716411
*RES
1 psum_col0_in[10] *38:7 28.63 
2 *38:7 *14748:A 24.8229 
3 *38:7 *692:DIODE 23 
*END

*D_NET *39 0.00179714
*CONN
*P psum_col0_in[11] I
*I *693:DIODE I *D sky130_fd_sc_hd__diode_2
*I *14749:A I *D sky130_fd_sc_hd__buf_1
*CAP
1 psum_col0_in[11] 0.000759996
2 *693:DIODE 0.000138573
3 *14749:A 0
4 *39:9 0.000898569
*RES
1 psum_col0_in[11] *39:9 31.2607 
2 *39:9 *14749:A 23 
3 *39:9 *693:DIODE 25.5271 
*END

*D_NET *40 0.00143282
*CONN
*P psum_col0_in[12] I
*I *694:DIODE I *D sky130_fd_sc_hd__diode_2
*I *14750:A I *D sky130_fd_sc_hd__buf_1
*CAP
1 psum_col0_in[12] 0.00062621
2 *694:DIODE 0
3 *14750:A 9.02011e-05
4 *40:7 0.000716411
*RES
1 psum_col0_in[12] *40:7 28.63 
2 *40:7 *14750:A 24.8229 
3 *40:7 *694:DIODE 23 
*END

*D_NET *41 0.00143282
*CONN
*P psum_col0_in[13] I
*I *695:DIODE I *D sky130_fd_sc_hd__diode_2
*I *14751:A I *D sky130_fd_sc_hd__buf_1
*CAP
1 psum_col0_in[13] 0.00062621
2 *695:DIODE 0
3 *14751:A 9.02011e-05
4 *41:7 0.000716411
*RES
1 psum_col0_in[13] *41:7 28.63 
2 *41:7 *14751:A 24.8229 
3 *41:7 *695:DIODE 23 
*END

*D_NET *42 0.00143282
*CONN
*P psum_col0_in[14] I
*I *696:DIODE I *D sky130_fd_sc_hd__diode_2
*I *14752:A I *D sky130_fd_sc_hd__buf_1
*CAP
1 psum_col0_in[14] 0.00062621
2 *696:DIODE 0
3 *14752:A 9.02011e-05
4 *42:7 0.000716411
*RES
1 psum_col0_in[14] *42:7 28.63 
2 *42:7 *14752:A 24.8229 
3 *42:7 *696:DIODE 23 
*END

*D_NET *43 0.00169455
*CONN
*P psum_col0_in[15] I
*I *698:DIODE I *D sky130_fd_sc_hd__diode_2
*I *14754:A I *D sky130_fd_sc_hd__buf_1
*CAP
1 psum_col0_in[15] 0.000708703
2 *698:DIODE 0.000138573
3 *14754:A 0
4 *43:9 0.000847276
*RES
1 psum_col0_in[15] *43:9 30.3079 
2 *43:9 *14754:A 23 
3 *43:9 *698:DIODE 25.5271 
*END

*D_NET *44 0.00163799
*CONN
*P psum_col0_in[16] I
*I *14755:A I *D sky130_fd_sc_hd__buf_1
*I *699:DIODE I *D sky130_fd_sc_hd__diode_2
*CAP
1 psum_col0_in[16] 0.000624373
2 *14755:A 0.000166267
3 *699:DIODE 0
4 *44:7 0.00079064
5 *14755:A *467:8 5.67058e-05
*RES
1 psum_col0_in[16] *44:7 28.63 
2 *44:7 *699:DIODE 23 
3 *44:7 *14755:A 25.7757 
*END

*D_NET *45 0.00163799
*CONN
*P psum_col0_in[17] I
*I *14756:A I *D sky130_fd_sc_hd__buf_1
*I *700:DIODE I *D sky130_fd_sc_hd__diode_2
*CAP
1 psum_col0_in[17] 0.000624373
2 *14756:A 0.000166267
3 *700:DIODE 0
4 *45:7 0.00079064
5 *14756:A *468:8 5.67058e-05
*RES
1 psum_col0_in[17] *45:7 28.63 
2 *45:7 *700:DIODE 23 
3 *45:7 *14756:A 25.7757 
*END

*D_NET *46 0.00164986
*CONN
*P psum_col0_in[18] I
*I *14757:A I *D sky130_fd_sc_hd__buf_1
*I *701:DIODE I *D sky130_fd_sc_hd__diode_2
*CAP
1 psum_col0_in[18] 0.000625415
2 *14757:A 0.000167448
3 *701:DIODE 0
4 *46:7 0.000792863
5 *14757:A *469:8 5.79559e-05
6 *14757:A *470:8 6.17437e-06
*RES
1 psum_col0_in[18] *46:7 28.63 
2 *46:7 *701:DIODE 23 
3 *46:7 *14757:A 25.9207 
*END

*D_NET *47 0.00163799
*CONN
*P psum_col0_in[19] I
*I *14758:A I *D sky130_fd_sc_hd__buf_1
*I *702:DIODE I *D sky130_fd_sc_hd__diode_2
*CAP
1 psum_col0_in[19] 0.000624373
2 *14758:A 0.000166267
3 *702:DIODE 0
4 *47:7 0.00079064
5 *14758:A *470:8 5.67058e-05
*RES
1 psum_col0_in[19] *47:7 28.63 
2 *47:7 *702:DIODE 23 
3 *47:7 *14758:A 25.7757 
*END

*D_NET *48 0.00244897
*CONN
*P psum_col0_in[1] I
*I *703:DIODE I *D sky130_fd_sc_hd__diode_2
*I *14759:A I *D sky130_fd_sc_hd__buf_1
*CAP
1 psum_col0_in[1] 0.0007841
2 *703:DIODE 4.52369e-05
3 *14759:A 0
4 *48:9 0.000829337
5 *703:DIODE *642:DIODE 0.000230604
6 *703:DIODE *471:12 0.000143655
7 *48:9 *642:DIODE 0.000315857
8 *48:9 *14699:A 0.00010018
*RES
1 psum_col0_in[1] *48:9 33.1664 
2 *48:9 *14759:A 23 
3 *48:9 *703:DIODE 25.5271 
*END

*D_NET *49 0.00169455
*CONN
*P psum_col0_in[20] I
*I *704:DIODE I *D sky130_fd_sc_hd__diode_2
*I *14760:A I *D sky130_fd_sc_hd__buf_1
*CAP
1 psum_col0_in[20] 0.000766654
2 *704:DIODE 8.06218e-05
3 *14760:A 0
4 *49:9 0.000847276
*RES
1 psum_col0_in[20] *49:9 31.2607 
2 *49:9 *14760:A 23 
3 *49:9 *704:DIODE 24.5743 
*END

*D_NET *50 0.00154873
*CONN
*P psum_col0_in[21] I
*I *705:DIODE I *D sky130_fd_sc_hd__diode_2
*I *14761:A I *D sky130_fd_sc_hd__buf_1
*CAP
1 psum_col0_in[21] 0.00062621
2 *705:DIODE 0
3 *14761:A 0.000148152
4 *50:7 0.000774363
*RES
1 psum_col0_in[21] *50:7 28.63 
2 *50:7 *14761:A 25.7757 
3 *50:7 *705:DIODE 23 
*END

*D_NET *51 0.00154873
*CONN
*P psum_col0_in[22] I
*I *706:DIODE I *D sky130_fd_sc_hd__diode_2
*I *14762:A I *D sky130_fd_sc_hd__buf_1
*CAP
1 psum_col0_in[22] 0.00062621
2 *706:DIODE 0
3 *14762:A 0.000148152
4 *51:7 0.000774363
*RES
1 psum_col0_in[22] *51:7 28.63 
2 *51:7 *14762:A 25.7757 
3 *51:7 *706:DIODE 23 
*END

*D_NET *52 0.00160661
*CONN
*P psum_col0_in[23] I
*I *707:DIODE I *D sky130_fd_sc_hd__diode_2
*I *14763:A I *D sky130_fd_sc_hd__buf_1
*CAP
1 psum_col0_in[23] 0.00062621
2 *707:DIODE 0
3 *14763:A 0.000105265
4 *52:7 0.000731476
5 *14763:A *479:8 0.000143655
*RES
1 psum_col0_in[23] *52:7 28.63 
2 *52:7 *14763:A 25.7757 
3 *52:7 *707:DIODE 23 
*END

*D_NET *53 0.00164137
*CONN
*P psum_col0_in[24] I
*I *14765:A I *D sky130_fd_sc_hd__buf_1
*I *709:DIODE I *D sky130_fd_sc_hd__diode_2
*CAP
1 psum_col0_in[24] 0.000624373
2 *14765:A 0.000154663
3 *709:DIODE 0
4 *53:7 0.000779036
5 *14765:A *477:8 5.67058e-05
6 *14765:A *479:8 2.65879e-05
*RES
1 psum_col0_in[24] *53:7 28.63 
2 *53:7 *709:DIODE 23 
3 *53:7 *14765:A 25.7757 
*END

*D_NET *54 0.00196275
*CONN
*P psum_col0_in[25] I
*I *710:DIODE I *D sky130_fd_sc_hd__diode_2
*I *14766:A I *D sky130_fd_sc_hd__buf_1
*CAP
1 psum_col0_in[25] 0.000753133
2 *710:DIODE 4.77296e-05
3 *14766:A 0
4 *54:9 0.000800862
5 *710:DIODE *479:8 0.000130423
6 *54:9 *479:8 0.000230604
*RES
1 psum_col0_in[25] *54:9 32.2136 
2 *54:9 *14766:A 23 
3 *54:9 *710:DIODE 24.5743 
*END

*D_NET *55 0.0016028
*CONN
*P psum_col0_in[26] I
*I *711:DIODE I *D sky130_fd_sc_hd__diode_2
*I *14767:A I *D sky130_fd_sc_hd__buf_1
*CAP
1 psum_col0_in[26] 0.00062621
2 *711:DIODE 0
3 *14767:A 0.000119331
4 *55:7 0.000745541
5 *14767:A *479:8 5.67058e-05
6 *14767:A *480:10 5.50106e-05
*RES
1 psum_col0_in[26] *55:7 28.63 
2 *55:7 *14767:A 25.7757 
3 *55:7 *711:DIODE 23 
*END

*D_NET *56 0.00156351
*CONN
*P psum_col0_in[27] I
*I *712:DIODE I *D sky130_fd_sc_hd__diode_2
*I *14768:A I *D sky130_fd_sc_hd__buf_1
*CAP
1 psum_col0_in[27] 0.00062621
2 *712:DIODE 0
3 *14768:A 0.000127194
4 *56:7 0.000753404
5 *14768:A *480:10 5.67058e-05
*RES
1 psum_col0_in[27] *56:7 28.63 
2 *56:7 *14768:A 25.7757 
3 *56:7 *712:DIODE 23 
*END

*D_NET *57 0.00154873
*CONN
*P psum_col0_in[28] I
*I *713:DIODE I *D sky130_fd_sc_hd__diode_2
*I *14769:A I *D sky130_fd_sc_hd__buf_1
*CAP
1 psum_col0_in[28] 0.00062621
2 *713:DIODE 0
3 *14769:A 0.000148152
4 *57:7 0.000774363
*RES
1 psum_col0_in[28] *57:7 28.63 
2 *57:7 *14769:A 25.7757 
3 *57:7 *713:DIODE 23 
*END

*D_NET *58 0.00181707
*CONN
*P psum_col0_in[29] I
*I *714:DIODE I *D sky130_fd_sc_hd__diode_2
*I *14770:A I *D sky130_fd_sc_hd__buf_1
*CAP
1 psum_col0_in[29] 0.000723767
2 *714:DIODE 4.77296e-05
3 *14770:A 0
4 *58:9 0.000771497
5 *714:DIODE *484:8 0.000130423
6 *58:9 *484:8 0.000143655
*RES
1 psum_col0_in[29] *58:9 31.2607 
2 *58:9 *14770:A 23 
3 *58:9 *714:DIODE 24.5743 
*END

*D_NET *59 0.00146093
*CONN
*P psum_col0_in[2] I
*I *715:DIODE I *D sky130_fd_sc_hd__diode_2
*I *14771:A I *D sky130_fd_sc_hd__buf_1
*CAP
1 psum_col0_in[2] 0.00062621
2 *715:DIODE 0
3 *14771:A 7.59001e-05
4 *59:7 0.00070211
5 *14771:A *471:12 5.67058e-05
*RES
1 psum_col0_in[2] *59:7 28.63 
2 *59:7 *14771:A 24.8229 
3 *59:7 *715:DIODE 23 
*END

*D_NET *60 0.00156351
*CONN
*P psum_col0_in[30] I
*I *716:DIODE I *D sky130_fd_sc_hd__diode_2
*I *14772:A I *D sky130_fd_sc_hd__buf_1
*CAP
1 psum_col0_in[30] 0.00062621
2 *716:DIODE 0
3 *14772:A 0.000127194
4 *60:7 0.000753404
5 *14772:A *484:8 5.67058e-05
*RES
1 psum_col0_in[30] *60:7 28.63 
2 *60:7 *14772:A 25.7757 
3 *60:7 *716:DIODE 23 
*END

*D_NET *61 0.00154873
*CONN
*P psum_col0_in[31] I
*I *717:DIODE I *D sky130_fd_sc_hd__diode_2
*I *14773:A I *D sky130_fd_sc_hd__buf_1
*CAP
1 psum_col0_in[31] 0.00062621
2 *717:DIODE 0
3 *14773:A 0.000148152
4 *61:7 0.000774363
*RES
1 psum_col0_in[31] *61:7 28.63 
2 *61:7 *14773:A 25.7757 
3 *61:7 *717:DIODE 23 
*END

*D_NET *62 0.00146093
*CONN
*P psum_col0_in[3] I
*I *718:DIODE I *D sky130_fd_sc_hd__diode_2
*I *14774:A I *D sky130_fd_sc_hd__buf_1
*CAP
1 psum_col0_in[3] 0.00062621
2 *718:DIODE 0
3 *14774:A 7.59001e-05
4 *62:7 0.00070211
5 *14774:A *471:12 5.67058e-05
*RES
1 psum_col0_in[3] *62:7 28.63 
2 *62:7 *14774:A 24.8229 
3 *62:7 *718:DIODE 23 
*END

*D_NET *63 0.00146093
*CONN
*P psum_col0_in[4] I
*I *720:DIODE I *D sky130_fd_sc_hd__diode_2
*I *14776:A I *D sky130_fd_sc_hd__buf_1
*CAP
1 psum_col0_in[4] 0.00062621
2 *720:DIODE 0
3 *14776:A 7.59001e-05
4 *63:7 0.00070211
5 *14776:A *471:12 5.67058e-05
*RES
1 psum_col0_in[4] *63:7 28.63 
2 *63:7 *14776:A 24.8229 
3 *63:7 *720:DIODE 23 
*END

*D_NET *64 0.00146271
*CONN
*P psum_col0_in[5] I
*I *721:DIODE I *D sky130_fd_sc_hd__diode_2
*I *14777:A I *D sky130_fd_sc_hd__buf_1
*CAP
1 psum_col0_in[5] 0.00062621
2 *721:DIODE 0
3 *14777:A 7.38373e-05
4 *64:7 0.000700048
5 *14777:A *471:12 6.26126e-05
*RES
1 psum_col0_in[5] *64:7 28.63 
2 *64:7 *14777:A 24.8229 
3 *64:7 *721:DIODE 23 
*END

*D_NET *65 0.00181707
*CONN
*P psum_col0_in[6] I
*I *722:DIODE I *D sky130_fd_sc_hd__diode_2
*I *14778:A I *D sky130_fd_sc_hd__buf_1
*CAP
1 psum_col0_in[6] 0.000694402
2 *722:DIODE 7.70949e-05
3 *14778:A 0
4 *65:9 0.000771497
5 *722:DIODE *489:10 0.000217372
6 *65:9 *489:10 5.67058e-05
*RES
1 psum_col0_in[6] *65:9 30.3079 
2 *65:9 *14778:A 23 
3 *65:9 *722:DIODE 25.5271 
*END

*D_NET *66 0.00146093
*CONN
*P psum_col0_in[7] I
*I *723:DIODE I *D sky130_fd_sc_hd__diode_2
*I *14779:A I *D sky130_fd_sc_hd__buf_1
*CAP
1 psum_col0_in[7] 0.00062621
2 *723:DIODE 0
3 *14779:A 7.59001e-05
4 *66:7 0.00070211
5 *14779:A *489:10 5.67058e-05
*RES
1 psum_col0_in[7] *66:7 28.63 
2 *66:7 *14779:A 24.8229 
3 *66:7 *723:DIODE 23 
*END

*D_NET *67 0.00146093
*CONN
*P psum_col0_in[8] I
*I *724:DIODE I *D sky130_fd_sc_hd__diode_2
*I *14780:A I *D sky130_fd_sc_hd__buf_1
*CAP
1 psum_col0_in[8] 0.00062621
2 *724:DIODE 0
3 *14780:A 7.59001e-05
4 *67:7 0.00070211
5 *14780:A *489:10 5.67058e-05
*RES
1 psum_col0_in[8] *67:7 28.63 
2 *67:7 *14780:A 24.8229 
3 *67:7 *724:DIODE 23 
*END

*D_NET *68 0.00143282
*CONN
*P psum_col0_in[9] I
*I *725:DIODE I *D sky130_fd_sc_hd__diode_2
*I *14781:A I *D sky130_fd_sc_hd__buf_1
*CAP
1 psum_col0_in[9] 0.00062621
2 *725:DIODE 0
3 *14781:A 9.02011e-05
4 *68:7 0.000716411
*RES
1 psum_col0_in[9] *68:7 28.63 
2 *68:7 *14781:A 24.8229 
3 *68:7 *725:DIODE 23 
*END

*D_NET *69 0.00283112
*CONN
*P psum_col0_out[0] O
*I *14819:X O *D sky130_fd_sc_hd__clkbuf_4
*CAP
1 psum_col0_out[0] 0.000717221
2 *14819:X 0.000617492
3 *69:8 0.00133471
4 psum_col0_out[0] *166:15 0.000161688
5 *69:8 *166:15 0
*RES
1 *14819:X *69:8 49.5793 
2 *69:8 psum_col0_out[0] 16.4471 
*END

*D_NET *70 0.00134156
*CONN
*P psum_col0_out[10] O
*I *14820:X O *D sky130_fd_sc_hd__clkbuf_4
*CAP
1 psum_col0_out[10] 0.000216739
2 *14820:X 0.000454039
3 *70:10 0.000670778
*RES
1 *14820:X *70:10 47.7461 
2 *70:10 psum_col0_out[10] 5.0025 
*END

*D_NET *71 0.00163934
*CONN
*P psum_col0_out[11] O
*I *14821:X O *D sky130_fd_sc_hd__clkbuf_4
*CAP
1 psum_col0_out[11] 0.000644253
2 *14821:X 4.94048e-05
3 *71:8 0.000693658
4 psum_col0_out[11] *408:5 1.58805e-05
5 *71:8 *14820:A 0.000139357
6 *71:8 *408:11 9.67842e-05
*RES
1 *14821:X *71:8 39.5743 
2 *71:8 psum_col0_out[11] 13.9821 
*END

*D_NET *72 0.00132134
*CONN
*P psum_col0_out[12] O
*I *14822:X O *D sky130_fd_sc_hd__clkbuf_4
*CAP
1 psum_col0_out[12] 0.000216739
2 *14822:X 0.00044393
3 *72:10 0.000660668
*RES
1 *14822:X *72:10 47.7461 
2 *72:10 psum_col0_out[12] 5.0025 
*END

*D_NET *73 0.00140003
*CONN
*P psum_col0_out[13] O
*I *14823:X O *D sky130_fd_sc_hd__clkbuf_4
*CAP
1 psum_col0_out[13] 0.000639798
2 *14823:X 3.27104e-05
3 *73:8 0.000672509
4 *73:8 *14822:A 5.50106e-05
*RES
1 *14823:X *73:8 38.6214 
2 *73:8 psum_col0_out[13] 13.9821 
*END

*D_NET *74 0.00132134
*CONN
*P psum_col0_out[14] O
*I *14824:X O *D sky130_fd_sc_hd__clkbuf_4
*CAP
1 psum_col0_out[14] 0.000216739
2 *14824:X 0.00044393
3 *74:10 0.000660668
*RES
1 *14824:X *74:10 47.7461 
2 *74:10 psum_col0_out[14] 5.0025 
*END

*D_NET *75 0.00132134
*CONN
*P psum_col0_out[15] O
*I *14825:X O *D sky130_fd_sc_hd__clkbuf_4
*CAP
1 psum_col0_out[15] 0.000216739
2 *14825:X 0.00044393
3 *75:10 0.000660668
*RES
1 *14825:X *75:10 47.7461 
2 *75:10 psum_col0_out[15] 5.0025 
*END

*D_NET *76 0.00178479
*CONN
*P psum_col0_out[16] O
*I *14826:X O *D sky130_fd_sc_hd__clkbuf_4
*CAP
1 psum_col0_out[16] 0.000624403
2 *14826:X 0.000267993
3 *76:8 0.000892395
*RES
1 *14826:X *76:8 41.48 
2 *76:8 psum_col0_out[16] 13.63 
*END

*D_NET *77 0.00150019
*CONN
*P psum_col0_out[17] O
*I *14827:X O *D sky130_fd_sc_hd__clkbuf_4
*CAP
1 psum_col0_out[17] 0.000624403
2 *14827:X 0.000125693
3 *77:8 0.000750095
*RES
1 *14827:X *77:8 39.5743 
2 *77:8 psum_col0_out[17] 13.63 
*END

*D_NET *78 0.00140209
*CONN
*P psum_col0_out[18] O
*I *14828:X O *D sky130_fd_sc_hd__clkbuf_4
*CAP
1 psum_col0_out[18] 0.000701044
2 *14828:X 0
3 *78:6 0.000701044
*RES
1 *14828:X *78:6 38 
2 *78:6 psum_col0_out[18] 17.0479 
*END

*D_NET *79 0.00152146
*CONN
*P psum_col0_out[19] O
*I *14829:X O *D sky130_fd_sc_hd__clkbuf_4
*CAP
1 psum_col0_out[19] 0.000624403
2 *14829:X 0.00010926
3 *79:8 0.000733662
4 *79:8 *385:17 5.41385e-05
*RES
1 *14829:X *79:8 39.5743 
2 *79:8 psum_col0_out[19] 13.63 
*END

*D_NET *80 0.00132134
*CONN
*P psum_col0_out[1] O
*I *14830:X O *D sky130_fd_sc_hd__clkbuf_4
*CAP
1 psum_col0_out[1] 0.000216739
2 *14830:X 0.00044393
3 *80:10 0.000660668
*RES
1 *14830:X *80:10 47.7461 
2 *80:10 psum_col0_out[1] 5.0025 
*END

*D_NET *81 0.00152146
*CONN
*P psum_col0_out[20] O
*I *14831:X O *D sky130_fd_sc_hd__clkbuf_4
*CAP
1 psum_col0_out[20] 0.000624403
2 *14831:X 0.00010926
3 *81:8 0.000733662
4 *81:8 *387:17 5.41385e-05
*RES
1 *14831:X *81:8 39.5743 
2 *81:8 psum_col0_out[20] 13.63 
*END

*D_NET *82 0.00215251
*CONN
*P psum_col0_out[21] O
*I *14832:X O *D sky130_fd_sc_hd__clkbuf_4
*CAP
1 psum_col0_out[21] 0.000624403
2 *14832:X 0.000260414
3 *82:8 0.000884817
4 *82:8 *14832:A 2.18506e-05
5 *82:8 *14833:A 0.000361027
*RES
1 *14832:X *82:8 42.4329 
2 *82:8 psum_col0_out[21] 13.63 
*END

*D_NET *83 0.00156716
*CONN
*P psum_col0_out[22] O
*I *14833:X O *D sky130_fd_sc_hd__clkbuf_4
*CAP
1 psum_col0_out[22] 0.000624403
2 *14833:X 9.75559e-05
3 *83:8 0.000721959
4 *83:8 *14833:A 9.84851e-05
5 *83:8 *391:17 2.4754e-05
*RES
1 *14833:X *83:8 39.5743 
2 *83:8 psum_col0_out[22] 13.63 
*END

*D_NET *84 0.00152146
*CONN
*P psum_col0_out[23] O
*I *14834:X O *D sky130_fd_sc_hd__clkbuf_4
*CAP
1 psum_col0_out[23] 0.000624403
2 *14834:X 0.00010926
3 *84:8 0.000733662
4 *84:8 *391:17 5.41385e-05
*RES
1 *14834:X *84:8 39.5743 
2 *84:8 psum_col0_out[23] 13.63 
*END

*D_NET *85 0.00152146
*CONN
*P psum_col0_out[24] O
*I *14835:X O *D sky130_fd_sc_hd__clkbuf_4
*CAP
1 psum_col0_out[24] 0.000624403
2 *14835:X 0.00010926
3 *85:8 0.000733662
4 *85:8 *392:17 5.41385e-05
*RES
1 *14835:X *85:8 39.5743 
2 *85:8 psum_col0_out[24] 13.63 
*END

*D_NET *86 0.00168362
*CONN
*P psum_col0_out[25] O
*I *14836:X O *D sky130_fd_sc_hd__clkbuf_4
*CAP
1 psum_col0_out[25] 0.000624403
2 *14836:X 0.000165582
3 *86:8 0.000789985
4 *86:8 *393:17 0.000103647
*RES
1 *14836:X *86:8 40.5271 
2 *86:8 psum_col0_out[25] 13.63 
*END

*D_NET *87 0.00152448
*CONN
*P psum_col0_out[26] O
*I *14837:X O *D sky130_fd_sc_hd__clkbuf_4
*CAP
1 psum_col0_out[26] 0.000624403
2 *14837:X 0.000107003
3 *87:8 0.000731406
4 *87:8 *394:17 5.41385e-05
5 *87:8 *395:17 7.53384e-06
*RES
1 *14837:X *87:8 39.5743 
2 *87:8 psum_col0_out[26] 13.63 
*END

*D_NET *88 0.00152146
*CONN
*P psum_col0_out[27] O
*I *14838:X O *D sky130_fd_sc_hd__clkbuf_4
*CAP
1 psum_col0_out[27] 0.000624403
2 *14838:X 0.00010926
3 *88:8 0.000733662
4 *88:8 *395:17 5.41385e-05
*RES
1 *14838:X *88:8 39.5743 
2 *88:8 psum_col0_out[27] 13.63 
*END

*D_NET *89 0.00151314
*CONN
*P psum_col0_out[28] O
*I *14839:X O *D sky130_fd_sc_hd__clkbuf_4
*CAP
1 psum_col0_out[28] 0.000624403
2 *14839:X 0.000116022
3 *89:8 0.000740425
4 *89:8 *14839:A 3.22879e-05
*RES
1 *14839:X *89:8 39.5743 
2 *89:8 psum_col0_out[28] 13.63 
*END

*D_NET *90 0.00152146
*CONN
*P psum_col0_out[29] O
*I *14840:X O *D sky130_fd_sc_hd__clkbuf_4
*CAP
1 psum_col0_out[29] 0.000624403
2 *14840:X 0.00010926
3 *90:8 0.000733662
4 *90:8 *14840:A 5.41385e-05
*RES
1 *14840:X *90:8 39.5743 
2 *90:8 psum_col0_out[29] 13.63 
*END

*D_NET *91 0.00169576
*CONN
*P psum_col0_out[2] O
*I *14841:X O *D sky130_fd_sc_hd__clkbuf_4
*CAP
1 psum_col0_out[2] 0.000649938
2 *14841:X 8.34893e-05
3 *91:8 0.000733427
4 *91:8 *386:21 0.000228909
*RES
1 *14841:X *91:8 40.5271 
2 *91:8 psum_col0_out[2] 13.9821 
*END

*D_NET *92 0.00197254
*CONN
*P psum_col0_out[30] O
*I *14842:X O *D sky130_fd_sc_hd__clkbuf_4
*CAP
1 psum_col0_out[30] 0.000624403
2 *14842:X 0.00020394
3 *92:8 0.000828342
4 *92:8 *400:17 0.000315857
*RES
1 *14842:X *92:8 41.48 
2 *92:8 psum_col0_out[30] 13.63 
*END

*D_NET *93 0.00155723
*CONN
*P psum_col0_out[31] O
*I *14843:X O *D sky130_fd_sc_hd__clkbuf_4
*CAP
1 psum_col0_out[31] 0.000624403
2 *14843:X 0.00010497
3 *93:8 0.000729372
4 *93:8 *400:17 9.84851e-05
*RES
1 *14843:X *93:8 39.5743 
2 *93:8 psum_col0_out[31] 13.63 
*END

*D_NET *94 0.00134156
*CONN
*P psum_col0_out[3] O
*I *14844:X O *D sky130_fd_sc_hd__clkbuf_4
*CAP
1 psum_col0_out[3] 0.000216739
2 *14844:X 0.000454039
3 *94:10 0.000670778
*RES
1 *14844:X *94:10 47.7461 
2 *94:10 psum_col0_out[3] 5.0025 
*END

*D_NET *95 0.00134156
*CONN
*P psum_col0_out[4] O
*I *14845:X O *D sky130_fd_sc_hd__clkbuf_4
*CAP
1 psum_col0_out[4] 0.000216739
2 *14845:X 0.000454039
3 *95:10 0.000670778
*RES
1 *14845:X *95:10 47.7461 
2 *95:10 psum_col0_out[4] 5.0025 
*END

*D_NET *96 0.0013868
*CONN
*P psum_col0_out[5] O
*I *14846:X O *D sky130_fd_sc_hd__clkbuf_4
*CAP
1 psum_col0_out[5] 0.000216739
2 *14846:X 0.000471589
3 *96:10 0.000688328
4 *96:10 *386:11 0
5 *96:10 *403:13 1.01436e-05
*RES
1 *14846:X *96:10 47.7461 
2 *96:10 psum_col0_out[5] 5.0025 
*END

*D_NET *97 0.00133181
*CONN
*P psum_col0_out[6] O
*I *14847:X O *D sky130_fd_sc_hd__clkbuf_4
*CAP
1 psum_col0_out[6] 0.000216739
2 *14847:X 0.000449169
3 *97:10 0.000665907
*RES
1 *14847:X *97:10 47.7461 
2 *97:10 psum_col0_out[6] 5.0025 
*END

*D_NET *98 0.00172108
*CONN
*P psum_col0_out[7] O
*I *14848:X O *D sky130_fd_sc_hd__clkbuf_4
*CAP
1 psum_col0_out[7] 0.000645037
2 *14848:X 0.000168649
3 *98:8 0.000813686
4 *98:8 *14847:A 9.37067e-05
*RES
1 *14848:X *98:8 41.48 
2 *98:8 psum_col0_out[7] 13.9821 
*END

*D_NET *99 0.00132134
*CONN
*P psum_col0_out[8] O
*I *14849:X O *D sky130_fd_sc_hd__clkbuf_4
*CAP
1 psum_col0_out[8] 0.000216739
2 *14849:X 0.00044393
3 *99:10 0.000660668
*RES
1 *14849:X *99:10 47.7461 
2 *99:10 psum_col0_out[8] 5.0025 
*END

*D_NET *100 0.00132134
*CONN
*P psum_col0_out[9] O
*I *14850:X O *D sky130_fd_sc_hd__clkbuf_4
*CAP
1 psum_col0_out[9] 0.000216739
2 *14850:X 0.00044393
3 *100:10 0.000660668
*RES
1 *14850:X *100:10 47.7461 
2 *100:10 psum_col0_out[9] 5.0025 
*END

*D_NET *101 0.00143282
*CONN
*P psum_col1_in[0] I
*I *726:DIODE I *D sky130_fd_sc_hd__diode_2
*I *14782:A I *D sky130_fd_sc_hd__buf_1
*CAP
1 psum_col1_in[0] 0.00062621
2 *726:DIODE 0
3 *14782:A 9.02011e-05
4 *101:7 0.000716411
*RES
1 psum_col1_in[0] *101:7 28.63 
2 *101:7 *14782:A 24.8229 
3 *101:7 *726:DIODE 23 
*END

*D_NET *102 0.00160661
*CONN
*P psum_col1_in[10] I
*I *727:DIODE I *D sky130_fd_sc_hd__diode_2
*I *14783:A I *D sky130_fd_sc_hd__buf_1
*CAP
1 psum_col1_in[10] 0.00062621
2 *727:DIODE 0
3 *14783:A 0.000105265
4 *102:7 0.000731476
5 *14783:A *499:8 0.000143655
*RES
1 psum_col1_in[10] *102:7 28.63 
2 *102:7 *14783:A 25.7757 
3 *102:7 *727:DIODE 23 
*END

*D_NET *103 0.00181707
*CONN
*P psum_col1_in[11] I
*I *728:DIODE I *D sky130_fd_sc_hd__diode_2
*I *14784:A I *D sky130_fd_sc_hd__buf_1
*CAP
1 psum_col1_in[11] 0.000723767
2 *728:DIODE 4.77296e-05
3 *14784:A 0
4 *103:9 0.000771497
5 *728:DIODE *499:8 0.000130423
6 *103:9 *499:8 0.000143655
*RES
1 psum_col1_in[11] *103:9 31.2607 
2 *103:9 *14784:A 23 
3 *103:9 *728:DIODE 24.5743 
*END

*D_NET *104 0.00160661
*CONN
*P psum_col1_in[12] I
*I *729:DIODE I *D sky130_fd_sc_hd__diode_2
*I *14785:A I *D sky130_fd_sc_hd__buf_1
*CAP
1 psum_col1_in[12] 0.00062621
2 *729:DIODE 0
3 *14785:A 0.000105265
4 *104:7 0.000731476
5 *14785:A *499:8 0.000143655
*RES
1 psum_col1_in[12] *104:7 28.63 
2 *104:7 *14785:A 25.7757 
3 *104:7 *729:DIODE 23 
*END

*D_NET *105 0.00158325
*CONN
*P psum_col1_in[13] I
*I *731:DIODE I *D sky130_fd_sc_hd__diode_2
*I *14787:A I *D sky130_fd_sc_hd__buf_1
*CAP
1 psum_col1_in[13] 0.00062621
2 *731:DIODE 0
3 *14787:A 0.000122369
4 *105:7 0.000748579
5 *14787:A *499:8 5.67058e-05
6 *14787:A *500:14 2.93845e-05
*RES
1 psum_col1_in[13] *105:7 28.63 
2 *105:7 *14787:A 25.7757 
3 *105:7 *731:DIODE 23 
*END

*D_NET *106 0.00167865
*CONN
*P psum_col1_in[14] I
*I *732:DIODE I *D sky130_fd_sc_hd__diode_2
*I *14788:A I *D sky130_fd_sc_hd__buf_1
*CAP
1 psum_col1_in[14] 0.000607483
2 *732:DIODE 0
3 *14788:A 0.000122021
4 *106:5 0.000729504
5 *14788:A *500:14 5.67058e-05
6 *14788:A *501:10 7.88926e-05
7 *14788:A *505:28 1.01436e-05
8 *14788:A *505:32 0
9 *106:5 *505:28 7.39034e-05
*RES
1 psum_col1_in[14] *106:5 13.63 
2 *106:5 *14788:A 40.7757 
3 *106:5 *732:DIODE 38 
*END

*D_NET *107 0.00166159
*CONN
*P psum_col1_in[15] I
*I *14789:A I *D sky130_fd_sc_hd__buf_1
*I *733:DIODE I *D sky130_fd_sc_hd__diode_2
*CAP
1 psum_col1_in[15] 0.000634483
2 *14789:A 0.000154663
3 *733:DIODE 0
4 *107:7 0.000789146
5 *14789:A *501:10 5.67058e-05
6 *14789:A *507:16 2.65879e-05
*RES
1 psum_col1_in[15] *107:7 28.63 
2 *107:7 *733:DIODE 23 
3 *107:7 *14789:A 25.7757 
*END

*D_NET *108 0.00178722
*CONN
*P psum_col1_in[16] I
*I *734:DIODE I *D sky130_fd_sc_hd__diode_2
*I *14790:A I *D sky130_fd_sc_hd__buf_1
*CAP
1 psum_col1_in[16] 0.000750992
2 *734:DIODE 5.3631e-05
3 *14790:A 0
4 *108:15 0.000804623
5 *734:DIODE *507:16 0.000145238
6 *108:15 *502:8 3.27399e-05
*RES
1 psum_col1_in[16] *108:15 33.1043 
2 *108:15 *14790:A 23 
3 *108:15 *734:DIODE 24.5743 
*END

*D_NET *109 0.00165109
*CONN
*P psum_col1_in[17] I
*I *735:DIODE I *D sky130_fd_sc_hd__diode_2
*I *14791:A I *D sky130_fd_sc_hd__buf_1
*CAP
1 psum_col1_in[17] 0.00063632
2 *735:DIODE 0
3 *14791:A 0.000118696
4 *109:7 0.000755016
5 *14791:A *507:16 0.000141052
*RES
1 psum_col1_in[17] *109:7 28.63 
2 *109:7 *14791:A 25.7757 
3 *109:7 *735:DIODE 23 
*END

*D_NET *110 0.00166307
*CONN
*P psum_col1_in[18] I
*I *736:DIODE I *D sky130_fd_sc_hd__diode_2
*I *14792:A I *D sky130_fd_sc_hd__buf_1
*CAP
1 psum_col1_in[18] 0.000621884
2 *736:DIODE 0
3 *14792:A 0.000118696
4 *110:7 0.00074058
5 *14792:A *507:16 0.000141052
6 *110:7 *505:18 4.08537e-05
*RES
1 psum_col1_in[18] *110:7 28.63 
2 *110:7 *14792:A 25.7757 
3 *110:7 *736:DIODE 23 
*END

*D_NET *111 0.00166464
*CONN
*P psum_col1_in[19] I
*I *14793:A I *D sky130_fd_sc_hd__buf_1
*I *737:DIODE I *D sky130_fd_sc_hd__diode_2
*CAP
1 psum_col1_in[19] 0.000621132
2 *14793:A 0
3 *737:DIODE 0
4 *111:20 0.000171748
5 *111:7 0.000792879
6 *111:20 *514:38 7.88828e-05
*RES
1 psum_col1_in[19] *111:7 28.63 
2 *111:7 *737:DIODE 23 
3 *111:7 *111:20 32.7757 
4 *111:20 *14793:A 23 
*END

*D_NET *112 0.00143207
*CONN
*P psum_col1_in[1] I
*I *738:DIODE I *D sky130_fd_sc_hd__diode_2
*I *14794:A I *D sky130_fd_sc_hd__buf_1
*CAP
1 psum_col1_in[1] 0.000627046
2 *738:DIODE 0
3 *14794:A 8.89899e-05
4 *112:7 0.000716036
*RES
1 psum_col1_in[1] *112:7 28.63 
2 *112:7 *14794:A 24.8229 
3 *112:7 *738:DIODE 23 
*END

*D_NET *113 0.00235698
*CONN
*P psum_col1_in[20] I
*I *739:DIODE I *D sky130_fd_sc_hd__diode_2
*I *14795:A I *D sky130_fd_sc_hd__dlymetal6s2s_1
*CAP
1 psum_col1_in[20] 0.000633347
2 *739:DIODE 0.000264123
3 *14795:A 9.60818e-05
4 *113:7 0.000993552
5 *739:DIODE *514:34 0.000222786
6 *14795:A *514:34 0.000147091
*RES
1 psum_col1_in[20] *113:7 28.63 
2 *113:7 *14795:A 25.5686 
3 *113:7 *739:DIODE 27.4329 
*END

*D_NET *114 0.00166882
*CONN
*P psum_col1_in[21] I
*I *740:DIODE I *D sky130_fd_sc_hd__diode_2
*I *14796:A I *D sky130_fd_sc_hd__dlymetal6s2s_1
*CAP
1 psum_col1_in[21] 0.000617237
2 *740:DIODE 0
3 *14796:A 0.000105298
4 *114:5 0.000722534
5 *14796:A *514:34 0.00014196
6 *14796:A *515:8 8.1796e-05
*RES
1 psum_col1_in[21] *114:5 13.63 
2 *114:5 *14796:A 40.7757 
3 *114:5 *740:DIODE 38 
*END

*D_NET *115 0.00203173
*CONN
*P psum_col1_in[22] I
*I *742:DIODE I *D sky130_fd_sc_hd__diode_2
*I *14798:A I *D sky130_fd_sc_hd__dlymetal6s2s_1
*CAP
1 psum_col1_in[22] 0.000712836
2 *742:DIODE 9.35888e-05
3 *14798:A 0
4 *115:15 5.32735e-05
5 *115:9 0.000859698
6 *742:DIODE *517:32 0.000129522
7 *115:9 *514:20 4.08537e-05
8 *115:9 *517:32 0.000141954
9 *115:15 *514:20 0
*RES
1 psum_col1_in[22] *115:9 30.2043 
2 *115:9 *115:15 30.8493 
3 *115:15 *14798:A 23 
4 *115:9 *742:DIODE 24.5743 
*END

*D_NET *116 0.00199531
*CONN
*P psum_col1_in[23] I
*I *743:DIODE I *D sky130_fd_sc_hd__diode_2
*I *14799:A I *D sky130_fd_sc_hd__dlymetal6s2s_1
*CAP
1 psum_col1_in[23] 0.000730692
2 *743:DIODE 8.96157e-05
3 *14799:A 2.30602e-05
4 *116:9 0.000843368
5 *743:DIODE *517:24 0.00010018
6 *743:DIODE *517:32 1.22822e-05
7 *14799:A *517:24 3.91386e-05
8 *14799:A *517:32 3.91386e-05
9 *116:9 *517:32 0.000117836
*RES
1 psum_col1_in[23] *116:9 30.2043 
2 *116:9 *14799:A 23.8493 
3 *116:9 *743:DIODE 24.5743 
*END

*D_NET *117 0.0017926
*CONN
*P psum_col1_in[24] I
*I *744:DIODE I *D sky130_fd_sc_hd__diode_2
*I *14800:A I *D sky130_fd_sc_hd__dlymetal6s2s_1
*CAP
1 psum_col1_in[24] 0.000725645
2 *744:DIODE 2.53444e-05
3 *14800:A 0
4 *117:15 0.000750989
5 *744:DIODE *514:8 8.1796e-05
6 *744:DIODE *517:24 0.00014196
7 *117:15 *514:14 6.6869e-05
*RES
1 psum_col1_in[24] *117:15 32.7521 
2 *117:15 *14800:A 23 
3 *117:15 *744:DIODE 24.5743 
*END

*D_NET *118 0.0023686
*CONN
*P psum_col1_in[25] I
*I *745:DIODE I *D sky130_fd_sc_hd__diode_2
*I *14801:A I *D sky130_fd_sc_hd__dlymetal6s2s_1
*CAP
1 psum_col1_in[25] 0.000665303
2 *745:DIODE 8.40446e-05
3 *14801:A 1.25102e-05
4 *118:7 0.000761858
5 *745:DIODE *514:8 0.000267837
6 *745:DIODE *517:24 0.000489755
7 *14801:A *514:8 3.22879e-05
8 *14801:A *517:24 5.50049e-05
*RES
1 psum_col1_in[25] *118:7 29.3343 
2 *118:7 *14801:A 23.6214 
3 *118:7 *745:DIODE 28.3857 
*END

*D_NET *119 0.00177867
*CONN
*P psum_col1_in[26] I
*I *746:DIODE I *D sky130_fd_sc_hd__diode_2
*I *14802:A I *D sky130_fd_sc_hd__dlymetal6s2s_1
*CAP
1 psum_col1_in[26] 0.000694008
2 *746:DIODE 0
3 *14802:A 8.27701e-05
4 *119:9 0.000776778
5 *14802:A *517:24 0.000169036
6 *119:9 *517:24 5.60787e-05
*RES
1 psum_col1_in[26] *119:9 29.7279 
2 *119:9 *14802:A 25.4236 
3 *119:9 *746:DIODE 23 
*END

*D_NET *120 0.00231584
*CONN
*P psum_col1_in[27] I
*I *747:DIODE I *D sky130_fd_sc_hd__diode_2
*I *14803:A I *D sky130_fd_sc_hd__dlymetal6s2s_1
*CAP
1 psum_col1_in[27] 0.000665303
2 *747:DIODE 0.000175092
3 *14803:A 0
4 *120:7 0.000840395
5 *747:DIODE *515:8 5.83407e-05
6 *747:DIODE *517:24 0.000576704
*RES
1 psum_col1_in[27] *120:7 29.3343 
2 *120:7 *14803:A 23 
3 *120:7 *747:DIODE 29.3386 
*END

*D_NET *121 0.00160306
*CONN
*P psum_col1_in[28] I
*I *14804:A I *D sky130_fd_sc_hd__clkbuf_2
*I *748:DIODE I *D sky130_fd_sc_hd__diode_2
*CAP
1 psum_col1_in[28] 0.000624373
2 *14804:A 0.000152237
3 *748:DIODE 0
4 *121:7 0.00077661
5 *14804:A *517:12 4.98353e-05
*RES
1 psum_col1_in[28] *121:7 28.63 
2 *121:7 *748:DIODE 23 
3 *121:7 *14804:A 25.9207 
*END

*D_NET *122 0.00156351
*CONN
*P psum_col1_in[29] I
*I *749:DIODE I *D sky130_fd_sc_hd__diode_2
*I *14805:A I *D sky130_fd_sc_hd__clkbuf_2
*CAP
1 psum_col1_in[29] 0.00062621
2 *749:DIODE 0
3 *14805:A 0.000127194
4 *122:7 0.000753404
5 *14805:A *517:12 5.67058e-05
*RES
1 psum_col1_in[29] *122:7 28.63 
2 *122:7 *14805:A 25.7757 
3 *122:7 *749:DIODE 23 
*END

*D_NET *123 0.00169455
*CONN
*P psum_col1_in[2] I
*I *750:DIODE I *D sky130_fd_sc_hd__diode_2
*I *14806:A I *D sky130_fd_sc_hd__buf_1
*CAP
1 psum_col1_in[2] 0.000766654
2 *750:DIODE 8.06218e-05
3 *14806:A 0
4 *123:9 0.000847276
*RES
1 psum_col1_in[2] *123:9 31.2607 
2 *123:9 *14806:A 23 
3 *123:9 *750:DIODE 24.5743 
*END

*D_NET *124 0.00165808
*CONN
*P psum_col1_in[30] I
*I *14807:A I *D sky130_fd_sc_hd__clkbuf_2
*I *751:DIODE I *D sky130_fd_sc_hd__diode_2
*CAP
1 psum_col1_in[30] 0.000730241
2 *14807:A 0
3 *751:DIODE 7.04447e-05
4 *124:9 0.000800686
5 *751:DIODE *519:8 5.67058e-05
*RES
1 psum_col1_in[30] *124:9 30.7843 
2 *124:9 *751:DIODE 24.5743 
3 *124:9 *14807:A 23 
*END

*D_NET *125 0.00282904
*CONN
*P psum_col1_in[31] I
*I *14809:A I *D sky130_fd_sc_hd__clkbuf_2
*I *753:DIODE I *D sky130_fd_sc_hd__diode_2
*CAP
1 psum_col1_in[31] 0.00132032
2 *14809:A 0
3 *753:DIODE 8.26853e-05
4 *125:9 0.00140301
5 *753:DIODE *521:8 2.30292e-05
*RES
1 psum_col1_in[31] *125:9 43.3786 
2 *125:9 *753:DIODE 24.5743 
3 *125:9 *14809:A 23 
*END

*D_NET *126 0.00164176
*CONN
*P psum_col1_in[3] I
*I *14810:A I *D sky130_fd_sc_hd__buf_1
*I *754:DIODE I *D sky130_fd_sc_hd__diode_2
*CAP
1 psum_col1_in[3] 0.00062626
2 *14810:A 0.000166267
3 *754:DIODE 0
4 *126:7 0.000792527
5 *14810:A *522:8 5.67058e-05
*RES
1 psum_col1_in[3] *126:7 28.63 
2 *126:7 *754:DIODE 23 
3 *126:7 *14810:A 25.7757 
*END

*D_NET *127 0.00163799
*CONN
*P psum_col1_in[4] I
*I *14811:A I *D sky130_fd_sc_hd__buf_1
*I *755:DIODE I *D sky130_fd_sc_hd__diode_2
*CAP
1 psum_col1_in[4] 0.000624373
2 *14811:A 0.000166267
3 *755:DIODE 0
4 *127:7 0.00079064
5 *14811:A *523:8 5.67058e-05
*RES
1 psum_col1_in[4] *127:7 28.63 
2 *127:7 *755:DIODE 23 
3 *127:7 *14811:A 25.7757 
*END

*D_NET *128 0.00154873
*CONN
*P psum_col1_in[5] I
*I *756:DIODE I *D sky130_fd_sc_hd__diode_2
*I *14812:A I *D sky130_fd_sc_hd__buf_1
*CAP
1 psum_col1_in[5] 0.00062621
2 *756:DIODE 0
3 *14812:A 0.000148152
4 *128:7 0.000774363
*RES
1 psum_col1_in[5] *128:7 28.63 
2 *128:7 *14812:A 25.7757 
3 *128:7 *756:DIODE 23 
*END

*D_NET *129 0.00154873
*CONN
*P psum_col1_in[6] I
*I *757:DIODE I *D sky130_fd_sc_hd__diode_2
*I *14813:A I *D sky130_fd_sc_hd__buf_1
*CAP
1 psum_col1_in[6] 0.00062621
2 *757:DIODE 0
3 *14813:A 0.000148152
4 *129:7 0.000774363
*RES
1 psum_col1_in[6] *129:7 28.63 
2 *129:7 *14813:A 25.7757 
3 *129:7 *757:DIODE 23 
*END

*D_NET *130 0.00179714
*CONN
*P psum_col1_in[7] I
*I *758:DIODE I *D sky130_fd_sc_hd__diode_2
*I *14814:A I *D sky130_fd_sc_hd__buf_1
*CAP
1 psum_col1_in[7] 0.000817948
2 *758:DIODE 8.06218e-05
3 *14814:A 0
4 *130:9 0.00089857
*RES
1 psum_col1_in[7] *130:9 32.2136 
2 *130:9 *14814:A 23 
3 *130:9 *758:DIODE 24.5743 
*END

*D_NET *131 0.00154873
*CONN
*P psum_col1_in[8] I
*I *759:DIODE I *D sky130_fd_sc_hd__diode_2
*I *14815:A I *D sky130_fd_sc_hd__buf_1
*CAP
1 psum_col1_in[8] 0.00062621
2 *759:DIODE 0
3 *14815:A 0.000148152
4 *131:7 0.000774363
*RES
1 psum_col1_in[8] *131:7 28.63 
2 *131:7 *14815:A 25.7757 
3 *131:7 *759:DIODE 23 
*END

*D_NET *132 0.00164176
*CONN
*P psum_col1_in[9] I
*I *14816:A I *D sky130_fd_sc_hd__buf_1
*I *760:DIODE I *D sky130_fd_sc_hd__diode_2
*CAP
1 psum_col1_in[9] 0.00062626
2 *14816:A 0.000166267
3 *760:DIODE 0
4 *132:7 0.000792527
5 *14816:A *528:8 5.67058e-05
*RES
1 psum_col1_in[9] *132:7 28.63 
2 *132:7 *760:DIODE 23 
3 *132:7 *14816:A 25.7757 
*END

*D_NET *133 0.00132134
*CONN
*P psum_col1_out[0] O
*I *14851:X O *D sky130_fd_sc_hd__clkbuf_4
*CAP
1 psum_col1_out[0] 0.000216739
2 *14851:X 0.00044393
3 *133:10 0.000660668
*RES
1 *14851:X *133:10 47.7461 
2 *133:10 psum_col1_out[0] 5.0025 
*END

*D_NET *134 0.00152146
*CONN
*P psum_col1_out[10] O
*I *14852:X O *D sky130_fd_sc_hd__clkbuf_4
*CAP
1 psum_col1_out[10] 0.000624403
2 *14852:X 0.00010926
3 *134:8 0.000733662
4 *134:8 *410:19 5.41385e-05
*RES
1 *14852:X *134:8 39.5743 
2 *134:8 psum_col1_out[10] 13.63 
*END

*D_NET *135 0.00151314
*CONN
*P psum_col1_out[11] O
*I *14853:X O *D sky130_fd_sc_hd__clkbuf_4
*CAP
1 psum_col1_out[11] 0.000624403
2 *14853:X 0.000116022
3 *135:8 0.000740425
4 *135:8 *411:19 3.22879e-05
*RES
1 *14853:X *135:8 39.5743 
2 *135:8 psum_col1_out[11] 13.63 
*END

*D_NET *136 0.00184577
*CONN
*P psum_col1_out[12] O
*I *14854:X O *D sky130_fd_sc_hd__clkbuf_4
*CAP
1 psum_col1_out[12] 0.000624403
2 *14854:X 0.000221905
3 *136:8 0.000846307
4 *136:8 *414:19 0.000153155
*RES
1 *14854:X *136:8 41.48 
2 *136:8 psum_col1_out[12] 13.63 
*END

*D_NET *137 0.00152448
*CONN
*P psum_col1_out[13] O
*I *14855:X O *D sky130_fd_sc_hd__clkbuf_4
*CAP
1 psum_col1_out[13] 0.000624403
2 *14855:X 0.000107003
3 *137:8 0.000731406
4 *137:8 *415:19 5.41385e-05
5 *137:8 *416:19 7.53384e-06
*RES
1 *14855:X *137:8 39.5743 
2 *137:8 psum_col1_out[13] 13.63 
*END

*D_NET *138 0.00152448
*CONN
*P psum_col1_out[14] O
*I *14856:X O *D sky130_fd_sc_hd__clkbuf_4
*CAP
1 psum_col1_out[14] 0.000624403
2 *14856:X 0.000107003
3 *138:8 0.000731406
4 *138:8 *416:19 5.41385e-05
5 *138:8 *417:19 7.53384e-06
*RES
1 *14856:X *138:8 39.5743 
2 *138:8 psum_col1_out[14] 13.63 
*END

*D_NET *139 0.00158337
*CONN
*P psum_col1_out[15] O
*I *14857:X O *D sky130_fd_sc_hd__clkbuf_4
*CAP
1 psum_col1_out[15] 0.000624403
2 *14857:X 9.63036e-05
3 *139:8 0.000720706
4 *139:8 *14858:A 0.00014196
*RES
1 *14857:X *139:8 39.5743 
2 *139:8 psum_col1_out[15] 13.63 
*END

*D_NET *140 0.00157652
*CONN
*P psum_col1_out[16] O
*I *14858:X O *D sky130_fd_sc_hd__clkbuf_4
*CAP
1 psum_col1_out[16] 0.000625437
2 *14858:X 0.000100421
3 *140:8 0.000725857
4 *140:8 *14858:A 0.000100069
5 *140:8 *419:23 2.47321e-05
*RES
1 *14858:X *140:8 39.5743 
2 *140:8 psum_col1_out[16] 13.63 
*END

*D_NET *141 0.00215091
*CONN
*P psum_col1_out[17] O
*I *14859:X O *D sky130_fd_sc_hd__clkbuf_4
*CAP
1 psum_col1_out[17] 0.000624403
2 *14859:X 0.00025901
3 *141:8 0.000883412
4 *141:8 *14860:A 2.4754e-05
5 *141:8 *419:23 0.000359332
*RES
1 *14859:X *141:8 42.4329 
2 *141:8 psum_col1_out[17] 13.63 
*END

*D_NET *142 0.00152191
*CONN
*P psum_col1_out[18] O
*I *14860:X O *D sky130_fd_sc_hd__clkbuf_4
*CAP
1 psum_col1_out[18] 0.000624403
2 *14860:X 0.000106907
3 *142:8 0.00073131
4 *142:8 *14860:A 5.41385e-05
5 *142:8 *421:19 5.14746e-06
*RES
1 *14860:X *142:8 39.5743 
2 *142:8 psum_col1_out[18] 13.63 
*END

*D_NET *143 0.00152146
*CONN
*P psum_col1_out[19] O
*I *14861:X O *D sky130_fd_sc_hd__clkbuf_4
*CAP
1 psum_col1_out[19] 0.000624403
2 *14861:X 0.00010926
3 *143:8 0.000733662
4 *143:8 *14861:A 5.41385e-05
*RES
1 *14861:X *143:8 39.5743 
2 *143:8 psum_col1_out[19] 13.63 
*END

*D_NET *144 0.00132331
*CONN
*P psum_col1_out[1] O
*I *14862:X O *D sky130_fd_sc_hd__clkbuf_4
*CAP
1 psum_col1_out[1] 0.000216739
2 *14862:X 0.000444914
3 *144:10 0.000661653
*RES
1 *14862:X *144:10 47.7461 
2 *144:10 psum_col1_out[1] 5.0025 
*END

*D_NET *145 0.00150107
*CONN
*P psum_col1_out[20] O
*I *14863:X O *D sky130_fd_sc_hd__clkbuf_4
*CAP
1 psum_col1_out[20] 0.000624403
2 *14863:X 0.000120921
3 *145:8 0.000745324
4 *145:8 *14863:A 1.04196e-05
*RES
1 *14863:X *145:8 39.5743 
2 *145:8 psum_col1_out[20] 13.63 
*END

*D_NET *146 0.00177796
*CONN
*P psum_col1_out[21] O
*I *14864:X O *D sky130_fd_sc_hd__clkbuf_4
*CAP
1 psum_col1_out[21] 0.000624403
2 *14864:X 0.000150122
3 *146:8 0.000774524
4 *146:8 *428:19 0.000228909
*RES
1 *14864:X *146:8 40.5271 
2 *146:8 psum_col1_out[21] 13.63 
*END

*D_NET *147 0.00158337
*CONN
*P psum_col1_out[22] O
*I *14865:X O *D sky130_fd_sc_hd__clkbuf_4
*CAP
1 psum_col1_out[22] 0.000624403
2 *14865:X 9.63036e-05
3 *147:8 0.000720706
4 *147:8 *428:19 0.00014196
*RES
1 *14865:X *147:8 39.5743 
2 *147:8 psum_col1_out[22] 13.63 
*END

*D_NET *148 0.00158337
*CONN
*P psum_col1_out[23] O
*I *14866:X O *D sky130_fd_sc_hd__clkbuf_4
*CAP
1 psum_col1_out[23] 0.000624403
2 *14866:X 9.63036e-05
3 *148:8 0.000720706
4 *148:8 *428:19 0.00014196
*RES
1 *14866:X *148:8 39.5743 
2 *148:8 psum_col1_out[23] 13.63 
*END

*D_NET *149 0.00157209
*CONN
*P psum_col1_out[24] O
*I *14867:X O *D sky130_fd_sc_hd__clkbuf_4
*CAP
1 psum_col1_out[24] 0.000624403
2 *14867:X 9.71748e-05
3 *149:8 0.000721577
4 *149:8 *14867:A 9.84851e-05
5 *149:8 *433:21 1.72202e-05
6 *149:8 *433:33 1.32314e-05
*RES
1 *14867:X *149:8 39.5743 
2 *149:8 psum_col1_out[24] 13.63 
*END

*D_NET *150 0.00158337
*CONN
*P psum_col1_out[25] O
*I *14868:X O *D sky130_fd_sc_hd__clkbuf_4
*CAP
1 psum_col1_out[25] 0.000624403
2 *14868:X 9.63036e-05
3 *150:8 0.000720706
4 *150:8 *433:33 0.00014196
*RES
1 *14868:X *150:8 39.5743 
2 *150:8 psum_col1_out[25] 13.63 
*END

*D_NET *151 0.00198377
*CONN
*P psum_col1_out[26] O
*I *14869:X O *D sky130_fd_sc_hd__clkbuf_4
*CAP
1 psum_col1_out[26] 0.000639798
2 *14869:X 0.000194961
3 *151:12 0.000834759
4 *151:12 *433:33 0.00031425
*RES
1 *14869:X *151:12 42.1221 
2 *151:12 psum_col1_out[26] 13.9821 
*END

*D_NET *152 0.00158337
*CONN
*P psum_col1_out[27] O
*I *14870:X O *D sky130_fd_sc_hd__clkbuf_4
*CAP
1 psum_col1_out[27] 0.000624403
2 *14870:X 9.63036e-05
3 *152:8 0.000720706
4 *152:8 *433:33 0.00014196
*RES
1 *14870:X *152:8 39.5743 
2 *152:8 psum_col1_out[27] 13.63 
*END

*D_NET *153 0.00156716
*CONN
*P psum_col1_out[28] O
*I *14871:X O *D sky130_fd_sc_hd__clkbuf_4
*CAP
1 psum_col1_out[28] 0.000624403
2 *14871:X 9.75559e-05
3 *153:8 0.000721959
4 *153:8 *432:29 9.84851e-05
5 *153:8 *433:35 2.4754e-05
*RES
1 *14871:X *153:8 39.5743 
2 *153:8 psum_col1_out[28] 13.63 
*END

*D_NET *154 0.00152606
*CONN
*P psum_col1_out[29] O
*I *14872:X O *D sky130_fd_sc_hd__clkbuf_4
*CAP
1 psum_col1_out[29] 0.000624403
2 *14872:X 0.00010273
3 *154:8 0.000727133
4 *154:8 *14872:A 5.41385e-05
5 *154:8 *436:19 1.76557e-05
*RES
1 *14872:X *154:8 39.5743 
2 *154:8 psum_col1_out[29] 13.63 
*END

*D_NET *155 0.00150019
*CONN
*P psum_col1_out[2] O
*I *14873:X O *D sky130_fd_sc_hd__clkbuf_4
*CAP
1 psum_col1_out[2] 0.000624403
2 *14873:X 0.000125693
3 *155:8 0.000750095
*RES
1 *14873:X *155:8 39.5743 
2 *155:8 psum_col1_out[2] 13.63 
*END

*D_NET *156 0.0013596
*CONN
*P psum_col1_out[30] O
*I *14874:X O *D sky130_fd_sc_hd__clkbuf_4
*CAP
1 psum_col1_out[30] 0.000642772
2 *14874:X 3.70272e-05
3 *156:8 0.000679799
*RES
1 *14874:X *156:8 38.6214 
2 *156:8 psum_col1_out[30] 13.9821 
*END

*D_NET *157 0.00288171
*CONN
*P psum_col1_out[31] O
*I *14875:X O *D sky130_fd_sc_hd__clkbuf_4
*CAP
1 psum_col1_out[31] 0.000604183
2 *14875:X 0.000816332
3 *157:8 0.00142051
4 *157:8 *14874:A 4.06849e-05
*RES
1 *14875:X *157:8 37.4586 
2 *157:8 psum_col1_out[31] 28.63 
*END

*D_NET *158 0.00200792
*CONN
*P psum_col1_out[3] O
*I *14876:X O *D sky130_fd_sc_hd__clkbuf_4
*CAP
1 psum_col1_out[3] 0.000624403
2 *14876:X 0.000278227
3 *158:8 0.00090263
4 *158:8 *14876:A 0.000202663
*RES
1 *14876:X *158:8 42.4329 
2 *158:8 psum_col1_out[3] 13.63 
*END

*D_NET *159 0.00152146
*CONN
*P psum_col1_out[4] O
*I *14877:X O *D sky130_fd_sc_hd__clkbuf_4
*CAP
1 psum_col1_out[4] 0.000624403
2 *14877:X 0.00010926
3 *159:8 0.000733662
4 *159:8 *14877:A 5.41385e-05
*RES
1 *14877:X *159:8 39.5743 
2 *159:8 psum_col1_out[4] 13.63 
*END

*D_NET *160 0.00158337
*CONN
*P psum_col1_out[5] O
*I *14878:X O *D sky130_fd_sc_hd__clkbuf_4
*CAP
1 psum_col1_out[5] 0.000624403
2 *14878:X 9.63036e-05
3 *160:8 0.000720706
4 *160:8 *441:15 0.00014196
*RES
1 *14878:X *160:8 39.5743 
2 *160:8 psum_col1_out[5] 13.63 
*END

*D_NET *161 0.00155723
*CONN
*P psum_col1_out[6] O
*I *14879:X O *D sky130_fd_sc_hd__clkbuf_4
*CAP
1 psum_col1_out[6] 0.000624403
2 *14879:X 0.00010497
3 *161:8 0.000729372
4 *161:8 *441:15 9.84851e-05
*RES
1 *14879:X *161:8 39.5743 
2 *161:8 psum_col1_out[6] 13.63 
*END

*D_NET *162 0.00177796
*CONN
*P psum_col1_out[7] O
*I *14880:X O *D sky130_fd_sc_hd__clkbuf_4
*CAP
1 psum_col1_out[7] 0.000624403
2 *14880:X 0.000150122
3 *162:8 0.000774524
4 *162:8 *443:15 0.000228909
*RES
1 *14880:X *162:8 40.5271 
2 *162:8 psum_col1_out[7] 13.63 
*END

*D_NET *163 0.00155723
*CONN
*P psum_col1_out[8] O
*I *14881:X O *D sky130_fd_sc_hd__clkbuf_4
*CAP
1 psum_col1_out[8] 0.000624403
2 *14881:X 0.00010497
3 *163:8 0.000729372
4 *163:8 *443:15 9.84851e-05
*RES
1 *14881:X *163:8 39.5743 
2 *163:8 psum_col1_out[8] 13.63 
*END

*D_NET *164 0.00152146
*CONN
*P psum_col1_out[9] O
*I *14882:X O *D sky130_fd_sc_hd__clkbuf_4
*CAP
1 psum_col1_out[9] 0.000624403
2 *14882:X 0.00010926
3 *164:8 0.000733662
4 *164:8 *444:19 5.41385e-05
*RES
1 *14882:X *164:8 39.5743 
2 *164:8 psum_col1_out[9] 13.63 
*END

*D_NET *165 0.00199421
*CONN
*P rst_n I
*I *14817:A I *D sky130_fd_sc_hd__clkbuf_16
*I *761:DIODE I *D sky130_fd_sc_hd__diode_2
*CAP
1 rst_n 0.000644847
2 *14817:A 0.000207653
3 *761:DIODE 0.000144603
4 *165:13 0.000997103
*RES
1 rst_n *165:13 32.1605 
2 *165:13 *761:DIODE 25.0507 
3 *165:13 *14817:A 27.3086 
*END

*D_NET *166 0.00257955
*CONN
*P valid_row0_in I
*I *14818:A I *D sky130_fd_sc_hd__clkbuf_4
*I *762:DIODE I *D sky130_fd_sc_hd__diode_2
*CAP
1 valid_row0_in 0.000970909
2 *14818:A 0
3 *762:DIODE 0
4 *166:23 0.000162347
5 *166:15 0.00113326
6 *166:15 *386:21 8.1796e-05
7 *166:23 *374:15 1.39431e-05
8 *166:23 *530:8 5.561e-05
9 psum_col0_out[0] *166:15 0.000161688
10 *69:8 *166:15 0
*RES
1 valid_row0_in *166:15 40.2124 
2 *166:15 *166:23 32.8793 
3 *166:23 *762:DIODE 23 
4 *166:15 *14818:A 23 
*END

*D_NET *167 0.0015466
*CONN
*P valid_row0_out O
*I *14883:X O *D sky130_fd_sc_hd__clkbuf_4
*CAP
1 valid_row0_out 0.000219857
2 *14883:X 0.000553442
3 *167:10 0.000773299
*RES
1 *14883:X *167:10 47.9946 
2 *167:10 valid_row0_out 8.84373 
*END

*D_NET *168 0.00189204
*CONN
*P valid_row1_in I
*I *600:DIODE I *D sky130_fd_sc_hd__diode_2
*I *14657:A I *D sky130_fd_sc_hd__clkbuf_2
*CAP
1 valid_row1_in 0.000810186
2 *600:DIODE 0.00011969
3 *14657:A 0
4 *168:13 0.000929876
5 *600:DIODE *303:10 3.22879e-05
*RES
1 valid_row1_in *168:13 36.1524 
2 *168:13 *14657:A 23 
3 *168:13 *600:DIODE 25.5271 
*END

*D_NET *169 0.00157047
*CONN
*P valid_row1_out O
*I *14884:X O *D sky130_fd_sc_hd__clkbuf_4
*CAP
1 valid_row1_out 0.000231796
2 *14884:X 0.000553442
3 *169:10 0.000785237
*RES
1 *14884:X *169:10 47.9946 
2 *169:10 valid_row1_out 8.84373 
*END

*D_NET *170 0.00205715
*CONN
*P w00[0] I
*I *601:DIODE I *D sky130_fd_sc_hd__diode_2
*I *14658:A I *D sky130_fd_sc_hd__buf_1
*CAP
1 w00[0] 0.000884331
2 *601:DIODE 0.000144245
3 *14658:A 0
4 *170:13 0.00102858
*RES
1 w00[0] *170:13 37.0845 
2 *170:13 *14658:A 23 
3 *170:13 *601:DIODE 25.5271 
*END

*D_NET *171 0.00206855
*CONN
*P w00[10] I
*I *602:DIODE I *D sky130_fd_sc_hd__diode_2
*I *14659:A I *D sky130_fd_sc_hd__buf_1
*CAP
1 w00[10] 0.000842317
2 *602:DIODE 0.000121351
3 *14659:A 0
4 *171:13 0.000963668
5 *602:DIODE *305:8 7.71928e-05
6 *171:13 *487:10 6.40209e-05
*RES
1 w00[10] *171:13 30.4834 
2 *171:13 *14659:A 23 
3 *171:13 *602:DIODE 25.5271 
*END

*D_NET *172 0.00197855
*CONN
*P w00[11] I
*I *603:DIODE I *D sky130_fd_sc_hd__diode_2
*I *14660:A I *D sky130_fd_sc_hd__buf_1
*CAP
1 w00[11] 0.000828886
2 *603:DIODE 0.000121793
3 *14660:A 0
4 *172:15 0.000950679
5 *603:DIODE *306:8 7.71928e-05
*RES
1 w00[11] *172:15 35.8209 
2 *172:15 *14660:A 23 
3 *172:15 *603:DIODE 25.5271 
*END

*D_NET *173 0.00209585
*CONN
*P w00[12] I
*I *604:DIODE I *D sky130_fd_sc_hd__diode_2
*I *14661:A I *D sky130_fd_sc_hd__buf_1
*CAP
1 w00[12] 0.000842317
2 *604:DIODE 0.000125679
3 *14661:A 2.34823e-05
4 *173:13 0.000991478
5 *604:DIODE *307:6 4.88684e-05
6 *173:13 *487:10 6.40209e-05
*RES
1 w00[12] *173:13 30.4834 
2 *173:13 *14661:A 23.4971 
3 *173:13 *604:DIODE 25.5271 
*END

*D_NET *174 0.00204123
*CONN
*P w00[13] I
*I *605:DIODE I *D sky130_fd_sc_hd__diode_2
*I *14662:A I *D sky130_fd_sc_hd__buf_1
*CAP
1 w00[13] 0.000802052
2 *605:DIODE 0.000124611
3 *14662:A 2.34823e-05
4 *174:13 0.000950146
5 *605:DIODE *308:8 0.000140939
*RES
1 w00[13] *174:13 34.9716 
2 *174:13 *14662:A 23.4971 
3 *174:13 *605:DIODE 25.5271 
*END

*D_NET *175 0.00208016
*CONN
*P w00[14] I
*I *606:DIODE I *D sky130_fd_sc_hd__diode_2
*I *14663:A I *D sky130_fd_sc_hd__buf_1
*CAP
1 w00[14] 0.00087218
2 *606:DIODE 0.000130702
3 *14663:A 0
4 *175:13 0.00100288
5 *606:DIODE *309:8 7.43941e-05
*RES
1 w00[14] *175:13 36.7324 
2 *175:13 *14663:A 23 
3 *175:13 *606:DIODE 25.5271 
*END

*D_NET *176 0.00197559
*CONN
*P w00[15] I
*I *607:DIODE I *D sky130_fd_sc_hd__diode_2
*I *14664:A I *D sky130_fd_sc_hd__buf_1
*CAP
1 w00[15] 0.000828886
2 *607:DIODE 0.00015582
3 *14664:A 0
4 *176:15 0.000984706
5 *607:DIODE *412:18 6.17437e-06
*RES
1 w00[15] *176:15 35.8209 
2 *176:15 *14664:A 23 
3 *176:15 *607:DIODE 25.5271 
*END

*D_NET *177 0.00199427
*CONN
*P w00[1] I
*I *608:DIODE I *D sky130_fd_sc_hd__diode_2
*I *14665:A I *D sky130_fd_sc_hd__buf_1
*CAP
1 w00[1] 0.000802052
2 *608:DIODE 0.000155978
3 *14665:A 2.34823e-05
4 *177:13 0.000981512
5 *608:DIODE *311:6 3.12488e-05
*RES
1 w00[1] *177:13 34.9716 
2 *177:13 *14665:A 23.4971 
3 *177:13 *608:DIODE 25.5271 
*END

*D_NET *178 0.00213987
*CONN
*P w00[2] I
*I *609:DIODE I *D sky130_fd_sc_hd__diode_2
*I *14666:A I *D sky130_fd_sc_hd__buf_1
*CAP
1 w00[2] 0.000843734
2 *609:DIODE 0.000159254
3 *14666:A 0
4 *178:15 0.00100299
5 *178:15 *487:10 0.000133892
*RES
1 w00[2] *178:15 29.8472 
2 *178:15 *14666:A 23 
3 *178:15 *609:DIODE 25.5271 
*END

*D_NET *179 0.00202129
*CONN
*P w00[3] I
*I *611:DIODE I *D sky130_fd_sc_hd__diode_2
*I *14668:A I *D sky130_fd_sc_hd__buf_1
*CAP
1 w00[3] 0.000828886
2 *611:DIODE 0.000146799
3 *14668:A 0
4 *179:15 0.000975685
5 *611:DIODE *314:8 6.99175e-05
*RES
1 w00[3] *179:15 35.8209 
2 *179:15 *14668:A 23 
3 *179:15 *611:DIODE 25.5271 
*END

*D_NET *180 0.00213555
*CONN
*P w00[4] I
*I *612:DIODE I *D sky130_fd_sc_hd__diode_2
*I *14669:A I *D sky130_fd_sc_hd__buf_1
*CAP
1 w00[4] 0.00089895
2 *612:DIODE 0.000131661
3 *14669:A 0
4 *180:19 0.00103061
5 *612:DIODE *315:6 7.43308e-05
*RES
1 w00[4] *180:19 37.5195 
2 *180:19 *14669:A 23 
3 *180:19 *612:DIODE 25.5271 
*END

*D_NET *181 0.00200248
*CONN
*P w00[5] I
*I *613:DIODE I *D sky130_fd_sc_hd__diode_2
*I *14670:A I *D sky130_fd_sc_hd__buf_1
*CAP
1 w00[5] 0.000819324
2 *613:DIODE 0.000107587
3 *14670:A 0
4 *181:17 0.000926911
5 *613:DIODE *14885:weight_in[2] 7.43308e-05
6 *613:DIODE *316:8 7.43308e-05
*RES
1 w00[5] *181:17 35.6138 
2 *181:17 *14670:A 23 
3 *181:17 *613:DIODE 25.5271 
*END

*D_NET *182 0.00204459
*CONN
*P w00[6] I
*I *614:DIODE I *D sky130_fd_sc_hd__diode_2
*I *14671:A I *D sky130_fd_sc_hd__buf_1
*CAP
1 w00[6] 0.00087218
2 *614:DIODE 0.000125679
3 *14671:A 0
4 *182:13 0.000997859
5 *614:DIODE *317:6 4.88684e-05
*RES
1 w00[6] *182:13 36.7324 
2 *182:13 *14671:A 23 
3 *182:13 *614:DIODE 25.5271 
*END

*D_NET *183 0.00197855
*CONN
*P w00[7] I
*I *615:DIODE I *D sky130_fd_sc_hd__diode_2
*I *14672:A I *D sky130_fd_sc_hd__buf_1
*CAP
1 w00[7] 0.000828886
2 *615:DIODE 0.000121793
3 *14672:A 0
4 *183:15 0.000950679
5 *615:DIODE *318:6 7.71928e-05
*RES
1 w00[7] *183:15 35.8209 
2 *183:15 *14672:A 23 
3 *183:15 *615:DIODE 25.5271 
*END

*D_NET *184 0.0020864
*CONN
*P w00[8] I
*I *616:DIODE I *D sky130_fd_sc_hd__diode_2
*I *14673:A I *D sky130_fd_sc_hd__buf_1
*CAP
1 w00[8] 0.000887605
2 *616:DIODE 0.000116998
3 *14673:A 0
4 *184:13 0.0010046
5 *616:DIODE *319:8 7.71928e-05
*RES
1 w00[8] *184:13 37.0845 
2 *184:13 *14673:A 23 
3 *184:13 *616:DIODE 25.5271 
*END

*D_NET *185 0.0019683
*CONN
*P w00[9] I
*I *617:DIODE I *D sky130_fd_sc_hd__diode_2
*I *14674:A I *D sky130_fd_sc_hd__buf_1
*CAP
1 w00[9] 0.000802052
2 *617:DIODE 0.000142097
3 *14674:A 2.34823e-05
4 *185:13 0.000967631
5 *617:DIODE *320:6 3.30379e-05
*RES
1 w00[9] *185:13 34.9716 
2 *185:13 *14674:A 23.4971 
3 *185:13 *617:DIODE 25.5271 
*END

*D_NET *186 0.00188689
*CONN
*P w01[0] I
*I *14675:A I *D sky130_fd_sc_hd__buf_4
*I *618:DIODE I *D sky130_fd_sc_hd__diode_2
*CAP
1 w01[0] 0.000746159
2 *14675:A 0
3 *618:DIODE 0.000125457
4 *186:13 0.000871615
5 *618:DIODE *321:8 0.000143655
*RES
1 w01[0] *186:13 34.4184 
2 *186:13 *618:DIODE 26.0036 
3 *186:13 *14675:A 23 
*END

*D_NET *187 0.00191058
*CONN
*P w01[10] I
*I *14676:A I *D sky130_fd_sc_hd__buf_4
*I *619:DIODE I *D sky130_fd_sc_hd__diode_2
*CAP
1 w01[10] 0.000743256
2 *14676:A 0
3 *619:DIODE 0.000212035
4 *187:13 0.000955291
5 *187:13 *337:10 0
6 *187:13 *337:14 0
*RES
1 w01[10] *187:13 28.1694 
2 *187:13 *619:DIODE 26.0036 
3 *187:13 *14676:A 23 
*END

*D_NET *188 0.00200179
*CONN
*P w01[11] I
*I *14677:A I *D sky130_fd_sc_hd__clkbuf_4
*I *620:DIODE I *D sky130_fd_sc_hd__diode_2
*CAP
1 w01[11] 0.000790544
2 *14677:A 0
3 *620:DIODE 0.000153457
4 *188:13 0.000944001
5 *620:DIODE *322:12 6.70361e-05
6 *620:DIODE *323:6 4.67488e-05
*RES
1 w01[11] *188:13 34.8948 
2 *188:13 *620:DIODE 25.5271 
3 *188:13 *14677:A 23 
*END

*D_NET *189 0.00183467
*CONN
*P w01[12] I
*I *14679:A I *D sky130_fd_sc_hd__clkbuf_4
*I *622:DIODE I *D sky130_fd_sc_hd__diode_2
*CAP
1 w01[12] 0.000771805
2 *14679:A 0
3 *622:DIODE 0.000117008
4 *189:13 0.000888814
5 *622:DIODE *325:10 5.70419e-05
*RES
1 w01[12] *189:13 34.8948 
2 *189:13 *622:DIODE 25.5271 
3 *189:13 *14679:A 23 
*END

*D_NET *190 0.00193636
*CONN
*P w01[13] I
*I *14680:A I *D sky130_fd_sc_hd__clkbuf_4
*I *623:DIODE I *D sky130_fd_sc_hd__diode_2
*CAP
1 w01[13] 0.00080455
2 *14680:A 0
3 *623:DIODE 0.000135275
4 *190:13 0.000939825
5 *623:DIODE *326:8 5.67058e-05
*RES
1 w01[13] *190:13 28.998 
2 *190:13 *623:DIODE 25.5271 
3 *190:13 *14680:A 23 
*END

*D_NET *191 0.00191844
*CONN
*P w01[14] I
*I *14681:A I *D sky130_fd_sc_hd__clkbuf_4
*I *624:DIODE I *D sky130_fd_sc_hd__diode_2
*CAP
1 w01[14] 0.00076584
2 *14681:A 0
3 *624:DIODE 0.00016846
4 *191:13 0.0009343
5 *624:DIODE *327:6 4.98398e-05
*RES
1 w01[14] *191:13 34.8948 
2 *191:13 *624:DIODE 25.5271 
3 *191:13 *14681:A 23 
*END

*D_NET *192 0.00193064
*CONN
*P w01[15] I
*I *14682:A I *D sky130_fd_sc_hd__clkbuf_4
*I *625:DIODE I *D sky130_fd_sc_hd__diode_2
*CAP
1 w01[15] 0.000771805
2 *14682:A 0
3 *625:DIODE 0.000193514
4 *192:13 0.00096532
*RES
1 w01[15] *192:13 34.8948 
2 *192:13 *625:DIODE 25.5271 
3 *192:13 *14682:A 23 
*END

*D_NET *193 0.00181569
*CONN
*P w01[1] I
*I *14683:A I *D sky130_fd_sc_hd__buf_4
*I *626:DIODE I *D sky130_fd_sc_hd__diode_2
*CAP
1 w01[1] 0.000746159
2 *14683:A 0
3 *626:DIODE 0.000161686
4 *193:13 0.000907844
*RES
1 w01[1] *193:13 34.4184 
2 *193:13 *626:DIODE 26.0036 
3 *193:13 *14683:A 23 
*END

*D_NET *194 0.00187975
*CONN
*P w01[2] I
*I *14684:A I *D sky130_fd_sc_hd__buf_4
*I *627:DIODE I *D sky130_fd_sc_hd__diode_2
*CAP
1 w01[2] 0.00075144
2 *14684:A 0
3 *627:DIODE 0.000160933
4 *194:13 0.000912373
5 *627:DIODE *330:8 5.50049e-05
6 *194:13 *329:8 0
*RES
1 w01[2] *194:13 28.1694 
2 *194:13 *627:DIODE 26.0036 
3 *194:13 *14684:A 23 
*END

*D_NET *195 0.00191505
*CONN
*P w01[3] I
*I *14685:A I *D sky130_fd_sc_hd__buf_4
*I *628:DIODE I *D sky130_fd_sc_hd__diode_2
*CAP
1 w01[3] 0.000746159
2 *14685:A 0
3 *628:DIODE 0.000163429
4 *195:13 0.000909587
5 *628:DIODE *331:8 9.58714e-05
*RES
1 w01[3] *195:13 34.4184 
2 *195:13 *628:DIODE 26.0036 
3 *195:13 *14685:A 23 
*END

*D_NET *196 0.00199198
*CONN
*P w01[4] I
*I *14686:A I *D sky130_fd_sc_hd__buf_4
*I *629:DIODE I *D sky130_fd_sc_hd__diode_2
*CAP
1 w01[4] 0.000758097
2 *14686:A 0
3 *629:DIODE 0.000169524
4 *196:13 0.000927621
5 *629:DIODE *332:6 0.000136738
*RES
1 w01[4] *196:13 34.4184 
2 *196:13 *629:DIODE 26.0036 
3 *196:13 *14686:A 23 
*END

*D_NET *197 0.0019609
*CONN
*P w01[5] I
*I *14687:A I *D sky130_fd_sc_hd__buf_4
*I *630:DIODE I *D sky130_fd_sc_hd__diode_2
*CAP
1 w01[5] 0.000746159
2 *14687:A 0
3 *630:DIODE 0.000165925
4 *197:13 0.000912083
5 *630:DIODE *333:10 0.000136738
*RES
1 w01[5] *197:13 34.4184 
2 *197:13 *630:DIODE 26.0036 
3 *197:13 *14687:A 23 
*END

*D_NET *198 0.00200064
*CONN
*P w01[6] I
*I *14688:A I *D sky130_fd_sc_hd__buf_4
*I *631:DIODE I *D sky130_fd_sc_hd__diode_2
*CAP
1 w01[6] 0.000758097
2 *14688:A 0
3 *631:DIODE 0.000174703
4 *198:13 0.0009328
5 *631:DIODE *334:8 0.000135037
*RES
1 w01[6] *198:13 34.4184 
2 *198:13 *631:DIODE 26.0036 
3 *198:13 *14688:A 23 
*END

*D_NET *199 0.00197676
*CONN
*P w01[7] I
*I *14690:A I *D sky130_fd_sc_hd__buf_4
*I *633:DIODE I *D sky130_fd_sc_hd__diode_2
*CAP
1 w01[7] 0.000746159
2 *14690:A 0
3 *633:DIODE 0.000174703
4 *199:13 0.000920862
5 *633:DIODE *336:8 0.000135037
*RES
1 w01[7] *199:13 34.4184 
2 *199:13 *633:DIODE 26.0036 
3 *199:13 *14690:A 23 
*END

*D_NET *200 0.00190307
*CONN
*P w01[8] I
*I *14691:A I *D sky130_fd_sc_hd__buf_4
*I *634:DIODE I *D sky130_fd_sc_hd__diode_2
*CAP
1 w01[8] 0.000746159
2 *14691:A 0
3 *634:DIODE 0.000205377
4 *200:13 0.000951536
*RES
1 w01[8] *200:13 34.4184 
2 *200:13 *634:DIODE 26.0036 
3 *200:13 *14691:A 23 
*END

*D_NET *201 0.00200064
*CONN
*P w01[9] I
*I *14692:A I *D sky130_fd_sc_hd__buf_4
*I *635:DIODE I *D sky130_fd_sc_hd__diode_2
*CAP
1 w01[9] 0.000758097
2 *14692:A 0
3 *635:DIODE 0.000174703
4 *201:13 0.0009328
5 *635:DIODE *338:8 0.000135037
*RES
1 w01[9] *201:13 34.4184 
2 *201:13 *635:DIODE 26.0036 
3 *201:13 *14692:A 23 
*END

*D_NET *202 0.00229042
*CONN
*P w10[0] I
*I *636:DIODE I *D sky130_fd_sc_hd__diode_2
*I *14693:A I *D sky130_fd_sc_hd__clkbuf_4
*CAP
1 w10[0] 0.000908938
2 *636:DIODE 0.00020816
3 *14693:A 0
4 *202:13 0.0011171
5 *636:DIODE *339:8 5.62266e-05
*RES
1 w10[0] *202:13 37.5609 
2 *202:13 *14693:A 23 
3 *202:13 *636:DIODE 26.48 
*END

*D_NET *203 0.00216264
*CONN
*P w10[10] I
*I *637:DIODE I *D sky130_fd_sc_hd__diode_2
*I *14694:A I *D sky130_fd_sc_hd__clkbuf_4
*CAP
1 w10[10] 0.000850533
2 *637:DIODE 0.000230788
3 *14694:A 0
4 *203:13 0.00108132
*RES
1 w10[10] *203:13 36.8566 
2 *203:13 *14694:A 23 
3 *203:13 *637:DIODE 26.48 
*END

*D_NET *204 0.00205697
*CONN
*P w10[11] I
*I *638:DIODE I *D sky130_fd_sc_hd__diode_2
*I *14695:A I *D sky130_fd_sc_hd__clkbuf_4
*CAP
1 w10[11] 0.000810186
2 *638:DIODE 0.000218298
3 *14695:A 0
4 *204:13 0.00102848
*RES
1 w10[11] *204:13 36.1524 
2 *204:13 *14695:A 23 
3 *204:13 *638:DIODE 26.48 
*END

*D_NET *205 0.00216202
*CONN
*P w10[12] I
*I *639:DIODE I *D sky130_fd_sc_hd__diode_2
*I *14696:A I *D sky130_fd_sc_hd__clkbuf_4
*CAP
1 w10[12] 0.000869823
2 *639:DIODE 0.000211187
3 *14696:A 0
4 *205:13 0.00108101
5 *205:13 *345:8 0
*RES
1 w10[12] *205:13 31.3119 
2 *205:13 *14696:A 23 
3 *205:13 *639:DIODE 26.48 
*END

*D_NET *206 0.00217917
*CONN
*P w10[13] I
*I *14697:A I *D sky130_fd_sc_hd__clkbuf_4
*I *640:DIODE I *D sky130_fd_sc_hd__diode_2
*CAP
1 w10[13] 0.000783897
2 *14697:A 0
3 *640:DIODE 0.00030569
4 *206:13 0.00108959
*RES
1 w10[13] *206:13 35.4481 
2 *206:13 *640:DIODE 26.9771 
3 *206:13 *14697:A 23 
*END

*D_NET *207 0.00219271
*CONN
*P w10[14] I
*I *641:DIODE I *D sky130_fd_sc_hd__diode_2
*I *14698:A I *D sky130_fd_sc_hd__clkbuf_4
*CAP
1 w10[14] 0.000850533
2 *641:DIODE 0.000152259
3 *14698:A 0
4 *207:13 0.00100279
5 *641:DIODE *344:8 0.000187129
6 *37:11 *207:13 0
*RES
1 w10[14] *207:13 36.8566 
2 *207:13 *14698:A 23 
3 *207:13 *641:DIODE 26.48 
*END

*D_NET *208 0.00321246
*CONN
*P w10[15] I
*I *14699:A I *D sky130_fd_sc_hd__clkbuf_4
*I *642:DIODE I *D sky130_fd_sc_hd__diode_2
*CAP
1 w10[15] 0.0007608
2 *14699:A 5.84422e-05
3 *642:DIODE 0.00033332
4 *208:15 0.00115256
5 *642:DIODE *471:12 9.90162e-05
6 *703:DIODE *642:DIODE 0.000230604
7 *37:11 *208:15 0.000161682
8 *48:9 *642:DIODE 0.000315857
9 *48:9 *14699:A 0.00010018
*RES
1 w10[15] *208:15 35.9245 
2 *208:15 *642:DIODE 32.0936 
3 *208:15 *14699:A 24.5743 
*END

*D_NET *209 0.00218822
*CONN
*P w10[1] I
*I *644:DIODE I *D sky130_fd_sc_hd__diode_2
*I *14701:A I *D sky130_fd_sc_hd__clkbuf_4
*CAP
1 w10[1] 0.00082974
2 *644:DIODE 0.000195066
3 *14701:A 0
4 *209:13 0.00102481
5 *644:DIODE *347:8 0.000138607
*RES
1 w10[1] *209:13 35.4481 
2 *209:13 *14701:A 23 
3 *209:13 *644:DIODE 26.48 
*END

*D_NET *210 0.00226608
*CONN
*P w10[2] I
*I *645:DIODE I *D sky130_fd_sc_hd__diode_2
*I *14702:A I *D sky130_fd_sc_hd__clkbuf_4
*CAP
1 w10[2] 0.000852332
2 *645:DIODE 0.000161473
3 *14702:A 0
4 *210:13 0.0010138
5 *645:DIODE *348:8 0.000184689
6 *210:13 *487:10 5.37822e-05
*RES
1 w10[2] *210:13 30.6077 
2 *210:13 *14702:A 23 
3 *210:13 *645:DIODE 26.48 
*END

*D_NET *211 0.00210234
*CONN
*P w10[3] I
*I *646:DIODE I *D sky130_fd_sc_hd__diode_2
*I *14703:A I *D sky130_fd_sc_hd__clkbuf_4
*CAP
1 w10[3] 0.000837723
2 *646:DIODE 0.000213449
3 *14703:A 0
4 *211:13 0.00105117
*RES
1 w10[3] *211:13 36.1524 
2 *211:13 *14703:A 23 
3 *211:13 *646:DIODE 26.48 
*END

*D_NET *212 0.00235733
*CONN
*P w10[4] I
*I *647:DIODE I *D sky130_fd_sc_hd__diode_2
*I *14704:A I *D sky130_fd_sc_hd__clkbuf_4
*CAP
1 w10[4] 0.000865131
2 *647:DIODE 0.000160913
3 *14704:A 0
4 *212:13 0.00102604
5 *647:DIODE *340:14 4.65826e-05
6 *647:DIODE *350:8 0.000184402
7 *212:13 *487:10 7.42596e-05
*RES
1 w10[4] *212:13 31.3119 
2 *212:13 *14704:A 23 
3 *212:13 *647:DIODE 26.48 
*END

*D_NET *213 0.00211164
*CONN
*P w10[5] I
*I *648:DIODE I *D sky130_fd_sc_hd__diode_2
*I *14705:A I *D sky130_fd_sc_hd__clkbuf_4
*CAP
1 w10[5] 0.000802448
2 *648:DIODE 0.000181604
3 *14705:A 0
4 *213:13 0.000984053
5 *648:DIODE *351:8 0.000143535
*RES
1 w10[5] *213:13 35.4481 
2 *213:13 *14705:A 23 
3 *213:13 *648:DIODE 26.48 
*END

*D_NET *214 0.00220653
*CONN
*P w10[6] I
*I *649:DIODE I *D sky130_fd_sc_hd__diode_2
*I *14706:A I *D sky130_fd_sc_hd__clkbuf_4
*CAP
1 w10[6] 0.000825422
2 *649:DIODE 0.000200749
3 *14706:A 0
4 *214:13 0.00102617
5 *649:DIODE *352:8 4.17736e-05
6 *649:DIODE *355:16 1.39317e-05
7 *214:13 *352:8 9.84851e-05
*RES
1 w10[6] *214:13 36.8566 
2 *214:13 *14706:A 23 
3 *214:13 *649:DIODE 26.48 
*END

*D_NET *215 0.00205904
*CONN
*P w10[7] I
*I *650:DIODE I *D sky130_fd_sc_hd__diode_2
*I *14707:A I *D sky130_fd_sc_hd__clkbuf_4
*CAP
1 w10[7] 0.000808123
2 *650:DIODE 0.000189354
3 *14707:A 0
4 *215:13 0.000997476
5 *650:DIODE *353:8 6.40928e-05
6 *215:13 *340:8 0
*RES
1 w10[7] *215:13 29.9034 
2 *215:13 *14707:A 23 
3 *215:13 *650:DIODE 26.48 
*END

*D_NET *216 0.00218037
*CONN
*P w10[8] I
*I *651:DIODE I *D sky130_fd_sc_hd__diode_2
*I *14708:A I *D sky130_fd_sc_hd__clkbuf_4
*CAP
1 w10[8] 0.000871887
2 *651:DIODE 0.000218298
3 *14708:A 0
4 *216:13 0.00109018
*RES
1 w10[8] *216:13 37.5609 
2 *216:13 *14708:A 23 
3 *216:13 *651:DIODE 26.48 
*END

*D_NET *217 0.00206399
*CONN
*P w10[9] I
*I *652:DIODE I *D sky130_fd_sc_hd__diode_2
*I *14709:A I *D sky130_fd_sc_hd__clkbuf_4
*CAP
1 w10[9] 0.000788832
2 *652:DIODE 0.000172183
3 *14709:A 0
4 *217:13 0.000961016
5 *652:DIODE *355:8 0.000141954
*RES
1 w10[9] *217:13 35.4481 
2 *217:13 *14709:A 23 
3 *217:13 *652:DIODE 26.48 
*END

*D_NET *218 0.00201139
*CONN
*P w11[0] I
*I *14710:A I *D sky130_fd_sc_hd__buf_4
*I *653:DIODE I *D sky130_fd_sc_hd__diode_2
*CAP
1 w11[0] 0.000758097
2 *14710:A 0
3 *653:DIODE 0.00017877
4 *218:13 0.000936867
5 *653:DIODE *356:8 0.000137651
*RES
1 w11[0] *218:13 34.4184 
2 *218:13 *653:DIODE 26.0036 
3 *218:13 *14710:A 23 
*END

*D_NET *219 0.00199421
*CONN
*P w11[10] I
*I *14712:A I *D sky130_fd_sc_hd__clkbuf_8
*I *655:DIODE I *D sky130_fd_sc_hd__diode_2
*CAP
1 w11[10] 0.000644847
2 *14712:A 0.000207653
3 *655:DIODE 0.000144603
4 *219:13 0.000997103
*RES
1 w11[10] *219:13 32.1605 
2 *219:13 *655:DIODE 25.0507 
3 *219:13 *14712:A 27.3086 
*END

*D_NET *220 0.00192708
*CONN
*P w11[11] I
*I *14713:A I *D sky130_fd_sc_hd__clkbuf_8
*I *656:DIODE I *D sky130_fd_sc_hd__diode_2
*CAP
1 w11[11] 0.00060669
2 *14713:A 0.000174387
3 *656:DIODE 0.000182462
4 *220:13 0.000963539
*RES
1 w11[11] *220:13 31.4562 
2 *220:13 *656:DIODE 25.9 
3 *220:13 *14713:A 26.6043 
*END

*D_NET *221 0.00199421
*CONN
*P w11[12] I
*I *14714:A I *D sky130_fd_sc_hd__clkbuf_8
*I *657:DIODE I *D sky130_fd_sc_hd__diode_2
*CAP
1 w11[12] 0.000644847
2 *14714:A 0.000207653
3 *657:DIODE 0.000144603
4 *221:13 0.000997103
*RES
1 w11[12] *221:13 32.1605 
2 *221:13 *657:DIODE 25.0507 
3 *221:13 *14714:A 27.3086 
*END

*D_NET *222 0.00182714
*CONN
*P w11[13] I
*I *658:DIODE I *D sky130_fd_sc_hd__diode_2
*I *14715:A I *D sky130_fd_sc_hd__clkbuf_8
*CAP
1 w11[13] 0.00078587
2 *658:DIODE 0
3 *14715:A 0
4 *222:19 0.000127701
5 *222:13 0.000913571
6 *222:19 *362:10 0
*RES
1 w11[13] *222:13 34.0662 
2 *222:13 *222:19 32.2579 
3 *222:19 *14715:A 23 
4 *222:13 *658:DIODE 23 
*END

*D_NET *223 0.00180931
*CONN
*P w11[14] I
*I *659:DIODE I *D sky130_fd_sc_hd__diode_2
*I *14716:A I *D sky130_fd_sc_hd__clkbuf_8
*CAP
1 w11[14] 0.000786701
2 *659:DIODE 0
3 *14716:A 0
4 *223:19 0.000117956
5 *223:13 0.000904657
*RES
1 w11[14] *223:13 34.0662 
2 *223:13 *223:19 32.2579 
3 *223:19 *14716:A 23 
4 *223:13 *659:DIODE 23 
*END

*D_NET *224 0.00199421
*CONN
*P w11[15] I
*I *14717:A I *D sky130_fd_sc_hd__clkbuf_8
*I *660:DIODE I *D sky130_fd_sc_hd__diode_2
*CAP
1 w11[15] 0.000644847
2 *14717:A 0.000207653
3 *660:DIODE 0.000144603
4 *224:13 0.000997103
*RES
1 w11[15] *224:13 32.1605 
2 *224:13 *660:DIODE 25.0507 
3 *224:13 *14717:A 27.3086 
*END

*D_NET *225 0.00197224
*CONN
*P w11[1] I
*I *14718:A I *D sky130_fd_sc_hd__buf_4
*I *661:DIODE I *D sky130_fd_sc_hd__diode_2
*CAP
1 w11[1] 0.000746159
2 *14718:A 0
3 *661:DIODE 0.000170287
4 *225:13 0.000916446
5 *661:DIODE *364:10 0.000139352
*RES
1 w11[1] *225:13 34.4184 
2 *225:13 *661:DIODE 26.0036 
3 *225:13 *14718:A 23 
*END

*D_NET *226 0.00195981
*CONN
*P w11[2] I
*I *14719:A I *D sky130_fd_sc_hd__buf_4
*I *662:DIODE I *D sky130_fd_sc_hd__diode_2
*CAP
1 w11[2] 0.000758097
2 *14719:A 0
3 *662:DIODE 0.000173416
4 *226:13 0.000931513
5 *662:DIODE *365:8 9.67842e-05
*RES
1 w11[2] *226:13 34.4184 
2 *226:13 *662:DIODE 26.0036 
3 *226:13 *14719:A 23 
*END

*D_NET *227 0.00194889
*CONN
*P w11[3] I
*I *14720:A I *D sky130_fd_sc_hd__buf_4
*I *663:DIODE I *D sky130_fd_sc_hd__diode_2
*CAP
1 w11[3] 0.000746159
2 *14720:A 0
3 *663:DIODE 0.000157309
4 *227:13 0.000903468
5 *663:DIODE *366:8 0.000141954
*RES
1 w11[3] *227:13 34.4184 
2 *227:13 *663:DIODE 26.0036 
3 *227:13 *14720:A 23 
*END

*D_NET *228 0.00197277
*CONN
*P w11[4] I
*I *14721:A I *D sky130_fd_sc_hd__buf_4
*I *664:DIODE I *D sky130_fd_sc_hd__diode_2
*CAP
1 w11[4] 0.000758097
2 *14721:A 0
3 *664:DIODE 0.000157309
4 *228:13 0.000915406
5 *664:DIODE *367:6 0.000141954
*RES
1 w11[4] *228:13 34.4184 
2 *228:13 *664:DIODE 26.0036 
3 *228:13 *14721:A 23 
*END

*D_NET *229 0.00194308
*CONN
*P w11[5] I
*I *14723:A I *D sky130_fd_sc_hd__buf_4
*I *666:DIODE I *D sky130_fd_sc_hd__diode_2
*CAP
1 w11[5] 0.000743256
2 *14723:A 0
3 *666:DIODE 0.000157309
4 *229:13 0.000900565
5 *666:DIODE *369:6 0.000141954
6 *229:13 *371:8 0
*RES
1 w11[5] *229:13 28.1694 
2 *229:13 *666:DIODE 26.0036 
3 *229:13 *14723:A 23 
*END

*D_NET *230 0.00185748
*CONN
*P w11[6] I
*I *14724:A I *D sky130_fd_sc_hd__buf_4
*I *667:DIODE I *D sky130_fd_sc_hd__diode_2
*CAP
1 w11[6] 0.000746159
2 *14724:A 0
3 *667:DIODE 0.00018258
4 *230:13 0.000928739
*RES
1 w11[6] *230:13 34.4184 
2 *230:13 *667:DIODE 26.0036 
3 *230:13 *14724:A 23 
*END

*D_NET *231 0.00185379
*CONN
*P w11[7] I
*I *14725:A I *D sky130_fd_sc_hd__buf_4
*I *668:DIODE I *D sky130_fd_sc_hd__diode_2
*CAP
1 w11[7] 0.000758097
2 *14725:A 0
3 *668:DIODE 0.000168796
4 *231:13 0.000926893
*RES
1 w11[7] *231:13 34.4184 
2 *231:13 *668:DIODE 26.0036 
3 *231:13 *14725:A 23 
*END

*D_NET *232 0.00182714
*CONN
*P w11[8] I
*I *669:DIODE I *D sky130_fd_sc_hd__diode_2
*I *14726:A I *D sky130_fd_sc_hd__clkbuf_8
*CAP
1 w11[8] 0.00078587
2 *669:DIODE 0
3 *14726:A 0
4 *232:19 0.000127701
5 *232:13 0.000913571
6 *232:19 *360:8 0
*RES
1 w11[8] *232:13 34.0662 
2 *232:13 *232:19 32.2579 
3 *232:19 *14726:A 23 
4 *232:13 *669:DIODE 23 
*END

*D_NET *233 0.00199421
*CONN
*P w11[9] I
*I *14727:A I *D sky130_fd_sc_hd__clkbuf_8
*I *670:DIODE I *D sky130_fd_sc_hd__diode_2
*CAP
1 w11[9] 0.000644847
2 *14727:A 0.000207653
3 *670:DIODE 0.000144603
4 *233:13 0.000997103
*RES
1 w11[9] *233:13 32.1605 
2 *233:13 *670:DIODE 25.0507 
3 *233:13 *14727:A 27.3086 
*END

*D_NET *234 0.0282494
*CONN
*I *14886:act_in[0] I *D processing_element
*I *810:DIODE I *D sky130_fd_sc_hd__diode_2
*I *14885:act_out[0] O *D processing_element
*CAP
1 *14886:act_in[0] 0.000999155
2 *810:DIODE 0
3 *14885:act_out[0] 0.000408374
4 *234:15 0.00350824
5 *234:11 0.00481417
6 *234:9 0.00271346
7 *14886:act_in[0] *14886:act_in[1] 0
8 *14886:act_in[0] *14886:valid_in 0
9 *14886:act_in[0] *362:16 0
10 *234:9 *300:66 0.000651625
11 *234:9 *529:96 0.000251253
12 *234:11 *242:11 0.00646971
13 *234:11 *595:11 0.00843347
*RES
1 *14885:act_out[0] *234:9 10.1877 
2 *234:9 *234:11 113.007 
3 *234:11 *234:15 47.0657 
4 *234:15 *810:DIODE 23 
5 *234:15 *14886:act_in[0] 39.1962 
*END

*D_NET *235 0.010995
*CONN
*I *14886:act_in[10] I *D processing_element
*I *14885:act_out[10] O *D processing_element
*CAP
1 *14886:act_in[10] 0.00441355
2 *14885:act_out[10] 0.00441355
3 *14886:act_in[10] *14886:act_in[11] 0.00106106
4 *14886:act_in[10] *14886:act_in[12] 0.000660826
5 *14886:act_in[10] *249:21 0.00028769
6 *14886:act_in[10] *361:10 0.00015837
*RES
1 *14885:act_out[10] *14886:act_in[10] 31.8592 
*END

*D_NET *236 0.0103417
*CONN
*I *14886:act_in[11] I *D processing_element
*I *14885:act_out[11] O *D processing_element
*CAP
1 *14886:act_in[11] 0.00453627
2 *14885:act_out[11] 0.00453627
3 *14886:act_in[11] *14886:act_in[12] 0
4 *14886:act_in[11] *361:10 0.000208147
5 *14886:act_in[10] *14886:act_in[11] 0.00106106
*RES
1 *14885:act_out[11] *14886:act_in[11] 30.336 
*END

*D_NET *237 0.00802286
*CONN
*I *14886:act_in[12] I *D processing_element
*I *14885:act_out[12] O *D processing_element
*CAP
1 *14886:act_in[12] 0.00356369
2 *14885:act_out[12] 0.00356369
3 *14886:act_in[12] *14886:act_in[13] 0.000234665
4 *14886:act_in[12] *363:20 0
5 *14886:act_in[10] *14886:act_in[12] 0.000660826
6 *14886:act_in[11] *14886:act_in[12] 0
*RES
1 *14885:act_out[12] *14886:act_in[12] 28.5589 
*END

*D_NET *238 0.00677161
*CONN
*I *14886:act_in[13] I *D processing_element
*I *14885:act_out[13] O *D processing_element
*CAP
1 *14886:act_in[13] 0.00326847
2 *14885:act_out[13] 0.00326847
3 *14886:act_in[12] *14886:act_in[13] 0.000234665
*RES
1 *14885:act_out[13] *14886:act_in[13] 10.9797 
*END

*D_NET *239 0.00755038
*CONN
*I *14886:act_in[14] I *D processing_element
*I *14885:act_out[14] O *D processing_element
*CAP
1 *14886:act_in[14] 0.0032589
2 *14885:act_out[14] 0.0032589
3 *14886:act_in[14] *14886:act_in[15] 0.00103258
*RES
1 *14885:act_out[14] *14886:act_in[14] 11.9653 
*END

*D_NET *240 0.00862484
*CONN
*I *14886:act_in[15] I *D processing_element
*I *14885:act_out[15] O *D processing_element
*CAP
1 *14886:act_in[15] 0.00379613
2 *14885:act_out[15] 0.00379613
3 *14886:act_in[15] *363:20 0
4 *14886:act_in[14] *14886:act_in[15] 0.00103258
*RES
1 *14885:act_out[15] *14886:act_in[15] 29.3205 
*END

*D_NET *241 0.0192637
*CONN
*I *14886:act_in[1] I *D processing_element
*I *811:DIODE I *D sky130_fd_sc_hd__diode_2
*I *14885:act_out[1] O *D processing_element
*CAP
1 *14886:act_in[1] 0.000993709
2 *811:DIODE 0
3 *14885:act_out[1] 0.00160476
4 *241:23 0.00297224
5 *241:19 0.00610329
6 *241:17 0.00480533
7 *241:11 0.00228534
8 *14886:act_in[1] *14886:act_in[2] 1.2632e-05
9 *14886:act_in[1] *362:16 0
10 *241:11 *458:99 0.000486375
11 *241:11 *595:11 0
12 *241:19 *243:13 0
13 *241:19 *245:13 0
14 *241:19 *246:13 0
15 *241:19 *247:13 0
16 *241:19 *248:11 0
17 *14886:act_in[0] *14886:act_in[1] 0
*RES
1 *14885:act_out[1] *241:11 35.4338 
2 *241:11 *241:17 39.1971 
3 *241:17 *241:19 79.025 
4 *241:19 *241:23 40.3957 
5 *241:23 *811:DIODE 23 
6 *241:23 *14886:act_in[1] 39.1962 
*END

*D_NET *242 0.0219211
*CONN
*I *14886:act_in[2] I *D processing_element
*I *812:DIODE I *D sky130_fd_sc_hd__diode_2
*I *14885:act_out[2] O *D processing_element
*CAP
1 *14886:act_in[2] 0.00100208
2 *812:DIODE 0
3 *14885:act_out[2] 0.000639608
4 *242:15 0.00345559
5 *242:11 0.00588675
6 *242:9 0.00407285
7 *14886:act_in[2] *362:16 0
8 *242:11 *243:13 0
9 *242:11 *244:15 8.27244e-05
10 *242:11 *245:13 0
11 *242:11 *246:13 0
12 *242:11 *247:13 0
13 *242:11 *248:11 0.000299144
14 *14886:act_in[1] *14886:act_in[2] 1.2632e-05
15 *234:11 *242:11 0.00646971
*RES
1 *14885:act_out[2] *242:9 10.2736 
2 *242:9 *242:11 96.1039 
3 *242:11 *242:15 46.5893 
4 *242:15 *812:DIODE 23 
5 *242:15 *14886:act_in[2] 39.5483 
*END

*D_NET *243 0.0161633
*CONN
*I *14886:act_in[3] I *D processing_element
*I *813:DIODE I *D sky130_fd_sc_hd__diode_2
*I *14885:act_out[3] O *D processing_element
*CAP
1 *14886:act_in[3] 0.000999155
2 *813:DIODE 0
3 *14885:act_out[3] 0.000985902
4 *243:23 0.00131089
5 *243:19 0.00466102
6 *243:17 0.00578487
7 *243:13 0.00242149
8 *14886:act_in[3] *14886:act_in[4] 0
9 *14886:act_in[3] *362:16 0
10 *243:19 *859:DIODE 0
11 *243:19 *245:19 0
12 *243:19 *247:19 0
13 *243:19 *328:16 0
14 *243:19 *361:10 0
15 *241:19 *243:13 0
16 *242:11 *243:13 0
*RES
1 *14885:act_out[3] *243:13 29.8976 
2 *243:13 *243:17 40.3957 
3 *243:17 *243:19 83.6029 
4 *243:19 *243:23 18.9564 
5 *243:23 *813:DIODE 23 
6 *243:23 *14886:act_in[3] 39.1962 
*END

*D_NET *244 0.0164665
*CONN
*I *14886:act_in[4] I *D processing_element
*I *814:DIODE I *D sky130_fd_sc_hd__diode_2
*I *14885:act_out[4] O *D processing_element
*CAP
1 *14886:act_in[4] 0.000964867
2 *814:DIODE 0
3 *14885:act_out[4] 0.00171883
4 *244:23 0.00238112
5 *244:19 0.0055082
6 *244:17 0.00409195
7 *244:15 0.00171883
8 *14886:act_in[3] *14886:act_in[4] 0
9 *242:11 *244:15 8.27244e-05
*RES
1 *14885:act_out[4] *244:15 40.0593 
2 *244:15 *244:17 15 
3 *244:17 *244:19 77.2643 
4 *244:19 *244:23 33.2493 
5 *244:23 *814:DIODE 23 
6 *244:23 *14886:act_in[4] 39.1962 
*END

*D_NET *245 0.0182332
*CONN
*I *14886:act_in[5] I *D processing_element
*I *815:DIODE I *D sky130_fd_sc_hd__diode_2
*I *14885:act_out[5] O *D processing_element
*CAP
1 *14886:act_in[5] 0.000926421
2 *815:DIODE 0
3 *14885:act_out[5] 0.00102496
4 *245:21 0.000926421
5 *245:19 0.00240464
6 *245:17 0.00472224
7 *245:13 0.00334255
8 *245:17 *845:DIODE 1.56662e-06
9 *245:19 *246:19 0
10 *245:19 *247:19 0.00287167
11 *245:19 *328:16 0.00201271
12 *241:19 *245:13 0
13 *242:11 *245:13 0
14 *243:19 *245:19 0
*RES
1 *14885:act_out[5] *245:13 30.6019 
2 *245:13 *245:17 44.6836 
3 *245:17 *245:19 65.9957 
4 *245:19 *245:21 15 
5 *245:21 *815:DIODE 23 
6 *245:21 *14886:act_in[5] 38.7197 
*END

*D_NET *246 0.0142942
*CONN
*I *14886:act_in[6] I *D processing_element
*I *816:DIODE I *D sky130_fd_sc_hd__diode_2
*I *14885:act_out[6] O *D processing_element
*CAP
1 *14886:act_in[6] 0.000551051
2 *816:DIODE 0.000199384
3 *14885:act_out[6] 0.00102496
4 *246:19 0.00356373
5 *246:17 0.00533863
6 *246:13 0.00355029
7 *246:17 *14886:weight_in[13] 4.32662e-05
8 *246:19 *247:19 0
9 *246:19 *326:14 2.29192e-05
10 *246:19 *328:16 0
11 *241:19 *246:13 0
12 *242:11 *246:13 0
13 *245:19 *246:19 0
*RES
1 *14885:act_out[6] *246:13 30.6019 
2 *246:13 *246:17 47.5421 
3 *246:17 *246:19 57.5443 
4 *246:19 *816:DIODE 41.0036 
5 *246:19 *14886:act_in[6] 9.87413 
*END

*D_NET *247 0.0152885
*CONN
*I *14886:act_in[7] I *D processing_element
*I *817:DIODE I *D sky130_fd_sc_hd__diode_2
*I *14885:act_out[7] O *D processing_element
*CAP
1 *14886:act_in[7] 0.00098061
2 *817:DIODE 0
3 *14885:act_out[7] 0.00102496
4 *247:21 0.00098061
5 *247:19 0.00194688
6 *247:17 0.00420283
7 *247:13 0.00328091
8 *14886:act_in[7] *14886:act_in[8] 0
9 *14886:act_in[7] *362:16 0
10 *241:19 *247:13 0
11 *242:11 *247:13 0
12 *243:19 *247:19 0
13 *245:19 *247:19 0.00287167
14 *246:19 *247:19 0
*RES
1 *14885:act_out[7] *247:13 30.6019 
2 *247:13 *247:17 44.2071 
3 *247:17 *247:19 49.0929 
4 *247:19 *247:21 15 
5 *247:21 *817:DIODE 23 
6 *247:21 *14886:act_in[7] 39.1962 
*END

*D_NET *248 0.012832
*CONN
*I *14886:act_in[8] I *D processing_element
*I *818:DIODE I *D sky130_fd_sc_hd__diode_2
*I *14885:act_out[8] O *D processing_element
*CAP
1 *14886:act_in[8] 0.000965067
2 *818:DIODE 0
3 *14885:act_out[8] 0.000725521
4 *248:15 0.00328188
5 *248:11 0.00447898
6 *248:9 0.00288769
7 *14886:act_in[8] *14886:act_in[9] 0
8 *14886:act_in[8] *362:16 0
9 *248:11 *249:13 0.00019377
10 *14886:act_in[7] *14886:act_in[8] 0
11 *241:19 *248:11 0
12 *242:11 *248:11 0.000299144
*RES
1 *14885:act_out[8] *248:9 10.5312 
2 *248:9 *248:11 45.3954 
3 *248:11 *248:15 45.16 
4 *248:15 *818:DIODE 23 
5 *248:15 *14886:act_in[8] 39.1962 
*END

*D_NET *249 0.0135922
*CONN
*I *14886:act_in[9] I *D processing_element
*I *819:DIODE I *D sky130_fd_sc_hd__diode_2
*I *14885:act_out[9] O *D processing_element
*CAP
1 *14886:act_in[9] 0.000965067
2 *819:DIODE 0
3 *14885:act_out[9] 0.000925888
4 *249:23 0.00160353
5 *249:21 0.00180352
6 *249:17 0.00280553
7 *249:13 0.00256636
8 *14886:act_in[9] *362:16 0
9 *249:21 *361:10 0.00244088
10 *14886:act_in[10] *249:21 0.00028769
11 *14886:act_in[8] *14886:act_in[9] 0
12 *248:11 *249:13 0.00019377
*RES
1 *14885:act_out[9] *249:13 30.6019 
2 *249:13 *249:17 36.1079 
3 *249:17 *249:21 47.19 
4 *249:21 *249:23 8.24429 
5 *249:23 *819:DIODE 23 
6 *249:23 *14886:act_in[9] 39.1962 
*END

*D_NET *266 0.0270639
*CONN
*I *14888:act_in[0] I *D processing_element
*I *884:DIODE I *D sky130_fd_sc_hd__diode_2
*I *14887:act_out[0] O *D processing_element
*CAP
1 *14888:act_in[0] 0.00102865
2 *884:DIODE 0
3 *14887:act_out[0] 0.000784197
4 *266:23 0.00135488
5 *266:19 0.00191292
6 *266:17 0.0015867
7 *266:15 0.00225832
8 *266:11 0.0039121
9 *266:9 0.00243797
10 *14888:act_in[0] *364:24 7.87027e-05
11 *266:9 *298:32 0.000275976
12 *266:9 *299:69 0.000345133
13 *266:11 *273:11 0.0022932
14 *266:11 *274:13 0
15 *266:11 *275:13 0
16 *266:19 *273:19 0.00355605
17 *266:19 *275:19 0.00517552
18 *266:19 *365:18 0
19 *266:19 *370:16 0
20 *266:19 *372:18 6.36037e-05
*RES
1 *14887:act_out[0] *266:9 10.8859 
2 *266:9 *266:11 43.2825 
3 *266:11 *266:15 44.2071 
4 *266:15 *266:17 15 
5 *266:17 *266:19 67.7564 
6 *266:19 *266:23 18.48 
7 *266:23 *884:DIODE 23 
8 *266:23 *14888:act_in[0] 38.3041 
*END

*D_NET *267 0.0116661
*CONN
*I *14888:act_in[10] I *D processing_element
*I *14887:act_out[10] O *D processing_element
*CAP
1 *14888:act_in[10] 0.00472454
2 *14887:act_out[10] 0.00472454
3 *14888:act_in[10] *14888:act_in[11] 0.000323505
4 *14888:act_in[10] *14888:act_in[12] 0.000766941
5 *14888:act_in[10] *281:19 0.000122544
6 *14888:act_in[10] *366:18 0.000326792
7 *14888:act_in[10] *371:16 0.00029682
8 *14888:act_in[10] *458:75 0.000380379
*RES
1 *14887:act_out[10] *14888:act_in[10] 31.6053 
*END

*D_NET *268 0.0104828
*CONN
*I *14888:act_in[11] I *D processing_element
*I *14887:act_out[11] O *D processing_element
*CAP
1 *14888:act_in[11] 0.00476153
2 *14887:act_out[11] 0.00476153
3 *14888:act_in[11] *14888:act_in[12] 0.000184024
4 *14888:act_in[11] *360:16 0.000112228
5 *14888:act_in[11] *363:20 0
6 *14888:act_in[11] *373:18 0.000112228
7 *14888:act_in[11] *529:75 0.000227734
8 *14888:act_in[10] *14888:act_in[11] 0.000323505
*RES
1 *14887:act_out[11] *14888:act_in[11] 30.1941 
*END

*D_NET *269 0.00925682
*CONN
*I *14888:act_in[12] I *D processing_element
*I *14887:act_out[12] O *D processing_element
*CAP
1 *14888:act_in[12] 0.00392037
2 *14887:act_out[12] 0.00392037
3 *14888:act_in[12] *14888:act_in[13] 0
4 *14888:act_in[12] *363:20 0
5 *14888:act_in[12] *365:18 0.000118197
6 *14888:act_in[12] *369:18 0.000127194
7 *14888:act_in[12] *370:16 0.000101545
8 *14888:act_in[12] *373:18 0.000118182
9 *14888:act_in[10] *14888:act_in[12] 0.000766941
10 *14888:act_in[11] *14888:act_in[12] 0.000184024
*RES
1 *14887:act_out[12] *14888:act_in[12] 28.5589 
*END

*D_NET *270 0.00696363
*CONN
*I *14888:act_in[13] I *D processing_element
*I *14887:act_out[13] O *D processing_element
*CAP
1 *14888:act_in[13] 0.00348181
2 *14887:act_out[13] 0.00348181
3 *14888:act_in[12] *14888:act_in[13] 0
*RES
1 *14887:act_out[13] *14888:act_in[13] 10.9237 
*END

*D_NET *271 0.00774278
*CONN
*I *14888:act_in[14] I *D processing_element
*I *14887:act_out[14] O *D processing_element
*CAP
1 *14888:act_in[14] 0.0035966
2 *14887:act_out[14] 0.0035966
3 *14888:act_in[14] *14888:act_in[15] 0.000119446
4 *14888:act_in[14] *359:18 0.000116551
5 *14888:act_in[14] *529:75 0.000313577
*RES
1 *14887:act_out[14] *14888:act_in[14] 11.7824 
*END

*D_NET *272 0.00962074
*CONN
*I *14888:act_in[15] I *D processing_element
*I *14887:act_out[15] O *D processing_element
*CAP
1 *14888:act_in[15] 0.00406978
2 *14887:act_out[15] 0.00406978
3 *14888:act_in[15] *358:18 0.000123709
4 *14888:act_in[15] *360:16 0.000136201
5 *14888:act_in[15] *363:20 0
6 *14888:act_in[15] *365:18 0.00015852
7 *14888:act_in[15] *369:18 0.000173453
8 *14888:act_in[15] *370:16 0.000136188
9 *14888:act_in[15] *372:18 0.000247395
10 *14888:act_in[15] *373:18 0.000158535
11 *14888:act_in[15] *529:75 0.000227734
12 *14888:act_in[14] *14888:act_in[15] 0.000119446
*RES
1 *14887:act_out[15] *14888:act_in[15] 29.1936 
*END

*D_NET *273 0.0223957
*CONN
*I *14888:act_in[1] I *D processing_element
*I *885:DIODE I *D sky130_fd_sc_hd__diode_2
*I *14887:act_out[1] O *D processing_element
*CAP
1 *14888:act_in[1] 0.00104495
2 *885:DIODE 0
3 *14887:act_out[1] 0.000765914
4 *273:23 0.00127926
5 *273:19 0.00141977
6 *273:17 0.00118546
7 *273:15 0.00186792
8 *273:11 0.00363857
9 *273:9 0.00253656
10 *14888:act_in[1] *364:24 7.81901e-05
11 *273:9 *298:32 0.000275976
12 *273:9 *458:36 0.000216652
13 *273:11 *276:15 0
14 *273:19 *275:19 0.000212341
15 *273:19 *372:18 0.00202491
16 *266:11 *273:11 0.0022932
17 *266:19 *273:19 0.00355605
*RES
1 *14887:act_out[1] *273:9 10.8 
2 *273:9 *273:11 50.3254 
3 *273:11 *273:15 45.16 
4 *273:15 *273:17 15 
5 *273:17 *273:19 52.2621 
6 *273:19 *273:23 17.5271 
7 *273:23 *885:DIODE 23 
8 *273:23 *14888:act_in[1] 38.7805 
*END

*D_NET *274 0.0189763
*CONN
*I *886:DIODE I *D sky130_fd_sc_hd__diode_2
*I *14888:act_in[2] I *D processing_element
*I *14887:act_out[2] O *D processing_element
*CAP
1 *886:DIODE 0.000303392
2 *14888:act_in[2] 0.000644772
3 *14887:act_out[2] 0.00097738
4 *274:19 0.00440988
5 *274:17 0.0053151
6 *274:13 0.00283076
7 *886:DIODE *278:19 0.00017844
8 *886:DIODE *279:19 9.5705e-05
9 *274:17 *14888:weight_in[2] 0.00030262
10 *274:17 *365:22 5.67058e-05
11 *274:19 *14888:weight_in[10] 6.8287e-05
12 *274:19 *14888:weight_in[4] 0
13 *274:19 *14888:weight_in[9] 0
14 *274:19 *278:19 0.00266619
15 *274:19 *279:19 0.000804232
16 *274:19 *358:18 0.000322882
17 *274:19 *365:18 0
18 *274:19 *367:18 0
19 *274:19 *369:18 0
20 *274:19 *373:18 0
21 *266:11 *274:13 0
*RES
1 *14887:act_out[2] *274:13 27.7499 
2 *274:13 *274:17 47.5421 
3 *274:17 *274:19 92.2304 
4 *274:19 *14888:act_in[2] 9.9936 
5 *274:19 *886:DIODE 43.4375 
*END

*D_NET *275 0.0228911
*CONN
*I *14888:act_in[3] I *D processing_element
*I *887:DIODE I *D sky130_fd_sc_hd__diode_2
*I *14887:act_out[3] O *D processing_element
*CAP
1 *14888:act_in[3] 0.00104429
2 *887:DIODE 0
3 *14887:act_out[3] 0.00100669
4 *275:23 0.00134983
5 *275:19 0.00270375
6 *275:17 0.00441569
7 *275:13 0.00302416
8 *14888:act_in[3] *364:24 7.87027e-05
9 *275:19 *361:10 0
10 *275:19 *372:18 0
11 *275:19 *596:19 0.00388012
12 *266:11 *275:13 0
13 *266:19 *275:19 0.00517552
14 *273:19 *275:19 0.000212341
*RES
1 *14887:act_out[3] *275:13 28.1021 
2 *275:13 *275:17 40.8721 
3 *275:17 *275:19 85.7157 
4 *275:19 *275:23 18.48 
5 *275:23 *887:DIODE 23 
6 *275:23 *14888:act_in[3] 38.7805 
*END

*D_NET *276 0.0170214
*CONN
*I *14888:act_in[4] I *D processing_element
*I *888:DIODE I *D sky130_fd_sc_hd__diode_2
*I *14887:act_out[4] O *D processing_element
*CAP
1 *14888:act_in[4] 0.00100283
2 *888:DIODE 0
3 *14887:act_out[4] 0.00183046
4 *276:23 0.00257022
5 *276:19 0.00563806
6 *276:17 0.00407067
7 *276:15 0.00183046
8 *14888:act_in[4] *364:24 7.87027e-05
9 *273:11 *276:15 0
*RES
1 *14887:act_out[4] *276:15 39.7992 
2 *276:15 *276:17 15 
3 *276:17 *276:19 77.2643 
4 *276:19 *276:23 33.7257 
5 *276:23 *888:DIODE 23 
6 *276:23 *14888:act_in[4] 38.3041 
*END

*D_NET *277 0.0162357
*CONN
*I *14888:act_in[5] I *D processing_element
*I *889:DIODE I *D sky130_fd_sc_hd__diode_2
*I *14887:act_out[5] O *D processing_element
*CAP
1 *14888:act_in[5] 0.00105344
2 *889:DIODE 0
3 *14887:act_out[5] 0.00241383
4 *277:23 0.0019915
5 *277:19 0.00405896
6 *277:17 0.0031209
7 *277:15 0.00241383
8 *14888:act_in[5] *364:20 4.04908e-05
9 *277:19 *280:19 0.000885349
10 *277:19 *281:19 0.000257446
11 *277:19 *371:16 0
*RES
1 *14887:act_out[5] *277:15 46.8304 
2 *277:15 *277:17 15 
3 *277:17 *277:19 67.7564 
4 *277:19 *277:23 26.1029 
5 *277:23 *889:DIODE 23 
6 *277:23 *14888:act_in[5] 38.7805 
*END

*D_NET *278 0.0167146
*CONN
*I *890:DIODE I *D sky130_fd_sc_hd__diode_2
*I *14888:act_in[6] I *D processing_element
*I *14887:act_out[6] O *D processing_element
*CAP
1 *890:DIODE 0.000332048
2 *14888:act_in[6] 0.000632193
3 *14887:act_out[6] 0.00101259
4 *278:23 0.00124056
5 *278:19 0.00133417
6 *278:17 0.00316238
7 *278:13 0.00311712
8 *890:DIODE *279:19 0.000131661
9 *890:DIODE *358:18 0
10 *14888:act_in[6] *14888:act_in[7] 0
11 *278:17 *14888:weight_in[12] 2.19639e-05
12 *278:19 *279:19 0.000390359
13 *278:19 *358:18 0.00192849
14 *278:23 *279:19 0.00056647
15 *278:23 *358:18 0
16 *886:DIODE *278:19 0.00017844
17 *274:19 *278:19 0.00266619
*RES
1 *14887:act_out[6] *278:13 28.9333 
2 *278:13 *278:17 47.0657 
3 *278:17 *278:19 50.2632 
4 *278:19 *278:23 8.34786 
5 *278:23 *14888:act_in[6] 9.90773 
6 *278:23 *890:DIODE 43.2096 
*END

*D_NET *279 0.0144197
*CONN
*I *891:DIODE I *D sky130_fd_sc_hd__diode_2
*I *14888:act_in[7] I *D processing_element
*I *14887:act_out[7] O *D processing_element
*CAP
1 *891:DIODE 0.000360617
2 *14888:act_in[7] 0.000595329
3 *14887:act_out[7] 0.00101259
4 *279:19 0.00193103
5 *279:17 0.00316235
6 *279:13 0.00319985
7 *891:DIODE *358:18 0
8 *891:DIODE *367:18 6.61924e-05
9 *279:17 *363:32 0.000112231
10 *279:19 *358:18 0
11 *279:19 *367:18 0.0019911
12 *886:DIODE *279:19 9.5705e-05
13 *890:DIODE *279:19 0.000131661
14 *14888:act_in[6] *14888:act_in[7] 0
15 *274:19 *279:19 0.000804232
16 *278:19 *279:19 0.000390359
17 *278:23 *279:19 0.00056647
*RES
1 *14887:act_out[7] *279:13 28.9333 
2 *279:13 *279:17 48.495 
3 *279:17 *279:19 48.9168 
4 *279:19 *14888:act_in[7] 9.82187 
5 *279:19 *891:DIODE 43.6861 
*END

*D_NET *280 0.0128342
*CONN
*I *14888:act_in[8] I *D processing_element
*I *892:DIODE I *D sky130_fd_sc_hd__diode_2
*I *14887:act_out[8] O *D processing_element
*CAP
1 *14888:act_in[8] 0.00103453
2 *892:DIODE 0
3 *14887:act_out[8] 0.00198138
4 *280:23 0.00204421
5 *280:19 0.0029383
6 *280:17 0.00192861
7 *280:15 0.00198138
8 *14888:act_in[8] *364:20 4.04908e-05
9 *280:19 *281:19 0
10 *277:19 *280:19 0.000885349
*RES
1 *14887:act_out[8] *280:15 46.5818 
2 *280:15 *280:17 15 
3 *280:17 *280:19 41.6979 
4 *280:19 *280:23 27.0557 
5 *280:23 *892:DIODE 23 
6 *280:23 *14888:act_in[8] 38.7805 
*END

*D_NET *281 0.0134001
*CONN
*I *14888:act_in[9] I *D processing_element
*I *893:DIODE I *D sky130_fd_sc_hd__diode_2
*I *14887:act_out[9] O *D processing_element
*CAP
1 *14888:act_in[9] 0.00102892
2 *893:DIODE 0
3 *14887:act_out[9] 0.00218739
4 *281:23 0.00184776
5 *281:19 0.00191064
6 *281:15 0.0032792
7 *14888:act_in[9] *364:20 4.04908e-05
8 *281:15 *298:32 0.000227734
9 *281:19 *371:16 0.00249799
10 *14888:act_in[10] *281:19 0.000122544
11 *277:19 *281:19 0.000257446
12 *280:19 *281:19 0
*RES
1 *14887:act_out[9] *281:15 48.7388 
2 *281:15 *281:19 47.8943 
3 *281:19 *281:23 24.6736 
4 *281:23 *893:DIODE 23 
5 *281:23 *14888:act_in[9] 38.7805 
*END

*D_NET *298 0.0463736
*CONN
*I *598:DIODE I *D sky130_fd_sc_hd__diode_2
*I *14653:A I *D sky130_fd_sc_hd__clkbuf_16
*I *599:DIODE I *D sky130_fd_sc_hd__diode_2
*I *14654:A I *D sky130_fd_sc_hd__clkbuf_16
*I *14652:X O *D sky130_fd_sc_hd__clkbuf_16
*CAP
1 *598:DIODE 0
2 *14653:A 0.000139995
3 *599:DIODE 0
4 *14654:A 0.000119179
5 *14652:X 0
6 *298:42 0.000139995
7 *298:40 0.00455146
8 *298:32 0.0180332
9 *298:30 0.017639
10 *298:6 0.000330102
11 *298:4 0.00436816
12 *298:30 *14887:psum_in[20] 0
13 *298:40 *385:17 0
14 *298:40 *387:11 0.000272864
15 *266:9 *298:32 0.000275976
16 *273:9 *298:32 0.000275976
17 *281:15 *298:32 0.000227734
*RES
1 *14652:X *298:4 23 
2 *298:4 *298:6 3.48 
3 *298:6 *14654:A 25.0507 
4 *298:6 *599:DIODE 23 
5 *298:4 *298:30 47.5058 
6 *298:30 *298:32 47.7829 
7 *298:32 *298:40 38.833 
8 *298:40 *298:42 15 
9 *298:42 *14653:A 25.5479 
10 *298:42 *598:DIODE 23 
*END

*D_NET *299 0.0405983
*CONN
*I *14888:clk I *D processing_element
*I *894:DIODE I *D sky130_fd_sc_hd__diode_2
*I *14887:clk I *D processing_element
*I *864:DIODE I *D sky130_fd_sc_hd__diode_2
*I *14653:X O *D sky130_fd_sc_hd__clkbuf_16
*CAP
1 *14888:clk 0.000911153
2 *894:DIODE 0
3 *14887:clk 5.51494e-05
4 *864:DIODE 0
5 *14653:X 7.63886e-05
6 *299:71 0.00204984
7 *299:69 0.00665017
8 *299:40 0.000894405
9 *299:30 0.00724777
10 *299:20 0.0138124
11 *299:8 0.00207905
12 *14888:clk *529:25 0
13 *299:8 *384:9 5.40241e-05
14 *299:20 *385:11 0.000389685
15 *299:30 *529:48 0.00326116
16 *299:40 *529:58 0
17 *299:69 *529:48 0.00277197
18 *266:9 *299:69 0.000345133
*RES
1 *14653:X *299:8 39.0979 
2 *299:8 *299:20 37.213 
3 *299:20 *299:30 12.1416 
4 *299:30 *299:40 38.3433 
5 *299:40 *864:DIODE 23 
6 *299:30 *14887:clk 0.2184 
7 *299:20 *299:69 35.7307 
8 *299:69 *299:71 14.9143 
9 *299:71 *894:DIODE 23 
10 *299:71 *14888:clk 38.7805 
*END

*D_NET *300 0.045503
*CONN
*I *14886:clk I *D processing_element
*I *820:DIODE I *D sky130_fd_sc_hd__diode_2
*I *795:DIODE I *D sky130_fd_sc_hd__diode_2
*I *14885:clk I *D processing_element
*I *14654:X O *D sky130_fd_sc_hd__clkbuf_16
*CAP
1 *14886:clk 0.00111916
2 *820:DIODE 0
3 *795:DIODE 0
4 *14885:clk 0
5 *14654:X 0.00013476
6 *300:66 0.00696429
7 *300:45 0.00116511
8 *300:26 0.00693423
9 *300:22 0.0134582
10 *300:14 0.0034672
11 *300:8 0.00175803
12 *14886:clk *338:18 2.31209e-05
13 *300:14 *541:7 0.00285835
14 *300:26 *529:96 0.00386776
15 *300:45 *529:106 0
16 *300:66 *328:16 2.11157e-05
17 *300:66 *529:96 0.00308003
18 *234:9 *300:66 0.000651625
*RES
1 *14654:X *300:8 39.5743 
2 *300:8 *300:14 46.2623 
3 *300:14 *300:22 12.4352 
4 *300:22 *300:26 3.99396 
5 *300:26 *14885:clk 8 
6 *300:26 *300:45 47.4818 
7 *300:45 *795:DIODE 23 
8 *300:22 *300:66 42.7731 
9 *300:66 *820:DIODE 23 
10 *300:66 *14886:clk 37.6633 
*END

*D_NET *301 0.076696
*CONN
*I *14885:act_in[0] I *D processing_element
*I *779:DIODE I *D sky130_fd_sc_hd__diode_2
*I *14655:X O *D sky130_fd_sc_hd__clkbuf_4
*CAP
1 *14885:act_in[0] 0.00082381
2 *779:DIODE 4.63989e-05
3 *14655:X 0.000453723
4 *301:24 0.0017548
5 *301:20 0.019867
6 *301:18 0.0197268
7 *301:12 0.00540791
8 *301:10 0.00511724
9 *779:DIODE *355:18 0.000126882
10 *779:DIODE *476:14 0.000126882
11 *14885:act_in[0] *14885:act_in[1] 0
12 *14885:act_in[0] *14885:valid_in 0
13 *301:10 *530:8 0
14 *301:12 *313:10 0
15 *301:12 *346:10 7.28526e-05
16 *301:12 *352:10 0
17 *301:12 *357:10 0
18 *301:12 *368:12 0.000374281
19 *301:12 *368:18 0
20 *301:12 *412:10 0
21 *301:12 *509:12 0.000183164
22 *301:12 *509:16 0.00172297
23 *301:12 *530:8 0
24 *301:20 *303:18 0.000350181
25 *301:20 *308:14 0.000153401
26 *301:20 *313:18 0.0040043
27 *301:20 *314:14 0.000280978
28 *301:20 *339:10 0.000193495
29 *301:20 *340:16 0.000115145
30 *301:20 *342:16 0
31 *301:20 *343:20 0
32 *301:20 *348:10 0.00482764
33 *301:20 *350:10 0.00459202
34 *301:20 *368:22 0.00518095
35 *301:20 *401:10 0.000583943
36 *301:20 *450:14 0.000178678
37 *301:20 *455:10 0.000430644
38 *11:13 *301:12 0
*RES
1 *14655:X *301:10 46.6896 
2 *301:10 *301:12 95.9279 
3 *301:12 *301:18 18.0739 
4 *301:18 *301:20 61.9995 
5 *301:20 *301:24 9.64453 
6 *301:24 *779:DIODE 47.7296 
7 *301:24 *14885:act_in[0] 2.87093 
*END

*D_NET *302 0.0685633
*CONN
*I *14885:act_in[3] I *D processing_element
*I *788:DIODE I *D sky130_fd_sc_hd__diode_2
*I *14656:X O *D sky130_fd_sc_hd__clkbuf_4
*CAP
1 *14885:act_in[3] 0.00064266
2 *788:DIODE 0.000158935
3 *14656:X 0.00115202
4 *302:20 0.00149603
5 *302:16 0.00119313
6 *302:10 0.016665
7 *302:8 0.0161663
8 *302:6 0.00115202
9 *14885:act_in[3] *14885:act_in[2] 0
10 *14885:act_in[3] *14885:act_in[4] 0
11 *302:10 *346:18 0.0284048
12 *302:10 *347:18 0
13 *302:20 *454:30 0.0014259
14 *302:20 *520:10 0
15 *610:DIODE *302:6 0.00010655
*RES
1 *14656:X *302:6 37.9143 
2 *302:6 *302:8 15 
3 *302:8 *302:10 419.195 
4 *302:10 *302:16 36.815 
5 *302:16 *302:20 33.8086 
6 *302:20 *788:DIODE 24.5743 
7 *302:20 *14885:act_in[3] 33.4949 
*END

*D_NET *303 0.0241962
*CONN
*I *14887:valid_in I *D processing_element
*I *867:DIODE I *D sky130_fd_sc_hd__diode_2
*I *14657:X O *D sky130_fd_sc_hd__clkbuf_2
*CAP
1 *14887:valid_in 0.00086615
2 *867:DIODE 0
3 *14657:X 0.000157953
4 *303:22 0.00183618
5 *303:18 0.00759749
6 *303:16 0.00717558
7 *303:10 0.000706077
8 *14887:valid_in *14887:weight_in[15] 1.70284e-05
9 *303:10 *530:8 0
10 *303:18 *324:10 0.00100806
11 *303:18 *339:10 0.00444918
12 *303:18 *347:18 0
13 *303:18 *348:10 0
14 *303:18 *368:22 0
15 *600:DIODE *303:10 3.22879e-05
16 *301:20 *303:18 0.000350181
*RES
1 *14657:X *303:10 40.5271 
2 *303:10 *303:16 39.6736 
3 *303:16 *303:18 154.384 
4 *303:18 *303:22 26.1029 
5 *303:22 *867:DIODE 23 
6 *303:22 *14887:valid_in 36.6849 
*END

*D_NET *304 0.0118759
*CONN
*I *14885:weight_in[0] I *D processing_element
*I *14658:X O *D sky130_fd_sc_hd__buf_1
*CAP
1 *14885:weight_in[0] 0.000770028
2 *14658:X 0.000331012
3 *304:22 0.00270657
4 *304:14 0.00252037
5 *304:10 0.000914838
6 *14885:weight_in[0] *14885:weight_in[1] 0
7 *14885:weight_in[0] *458:109 0
8 *304:10 *349:8 0.000375782
9 *304:10 *352:10 0.000243579
10 *304:10 *509:16 0.000164797
11 *304:14 *312:10 0.000946412
12 *304:14 *349:8 0.00168646
13 *304:14 *352:10 0
14 *304:14 *509:16 0.000363777
15 *304:22 *355:18 0.000427428
16 *304:22 *476:14 0.000424816
*RES
1 *14658:X *304:10 48.8025 
2 *304:10 *304:14 37.1539 
3 *304:14 *304:22 48.7582 
4 *304:22 *14885:weight_in[0] 2.56107 
*END

*D_NET *305 0.00527699
*CONN
*I *14885:weight_in[10] I *D processing_element
*I *14659:X O *D sky130_fd_sc_hd__buf_1
*CAP
1 *14885:weight_in[10] 0.000531174
2 *14659:X 0.00077005
3 *305:18 0.00158042
4 *305:8 0.00181929
5 *14885:weight_in[10] *14885:weight_in[11] 0
6 *14885:weight_in[10] *14885:weight_in[9] 0
7 *305:18 *313:18 0.000278634
8 *305:18 *339:10 0.000144158
9 *305:18 *454:30 0
10 *305:18 *520:10 7.60701e-05
11 *602:DIODE *305:8 7.71928e-05
*RES
1 *14659:X *305:8 48.6264 
2 *305:8 *305:18 48.1768 
3 *305:18 *14885:weight_in[10] 9.96 
*END

*D_NET *306 0.00571862
*CONN
*I *14885:weight_in[11] I *D processing_element
*I *14660:X O *D sky130_fd_sc_hd__buf_1
*CAP
1 *14885:weight_in[11] 0.00129249
2 *14660:X 0.0012791
3 *306:8 0.00257159
4 *14885:weight_in[11] *14885:weight_in[12] 2.29844e-05
5 *14885:weight_in[11] *346:18 0.000475254
6 *603:DIODE *306:8 7.71928e-05
7 *14885:weight_in[10] *14885:weight_in[11] 0
*RES
1 *14660:X *306:8 40.3171 
2 *306:8 *14885:weight_in[11] 33.4816 
*END

*D_NET *307 0.00714445
*CONN
*I *14885:weight_in[12] I *D processing_element
*I *14661:X O *D sky130_fd_sc_hd__buf_1
*CAP
1 *14885:weight_in[12] 0.00155189
2 *14661:X 0.0014586
3 *307:6 0.00301049
4 *14885:weight_in[12] *14885:weight_in[13] 0
5 *14885:weight_in[12] *346:18 0.000922387
6 *307:6 *309:18 0.000129228
7 *604:DIODE *307:6 4.88684e-05
8 *14885:weight_in[11] *14885:weight_in[12] 2.29844e-05
*RES
1 *14661:X *307:6 39.82 
2 *307:6 *14885:weight_in[12] 41.495 
*END

*D_NET *308 0.00822203
*CONN
*I *14885:weight_in[13] I *D processing_element
*I *14662:X O *D sky130_fd_sc_hd__buf_1
*CAP
1 *14885:weight_in[13] 0.000599334
2 *14662:X 0.000946012
3 *308:14 0.00207668
4 *308:8 0.00242335
5 *14885:weight_in[13] *14885:weight_in[14] 0
6 *14885:weight_in[13] *454:30 0
7 *14885:weight_in[13] *520:10 0.000159457
8 *308:14 *309:18 0.000621019
9 *308:14 *313:18 0.000938779
10 *308:14 *339:10 0.000163065
11 *605:DIODE *308:8 0.000140939
12 *14885:weight_in[12] *14885:weight_in[13] 0
13 *301:20 *308:14 0.000153401
*RES
1 *14662:X *308:8 48.6264 
2 *308:8 *308:14 40.955 
3 *308:14 *14885:weight_in[13] 27.0418 
*END

*D_NET *309 0.00894289
*CONN
*I *14885:weight_in[14] I *D processing_element
*I *14663:X O *D sky130_fd_sc_hd__buf_1
*CAP
1 *14885:weight_in[14] 0.000560854
2 *14663:X 0.000910693
3 *309:18 0.00194298
4 *309:8 0.00229282
5 *14885:weight_in[14] *14885:weight_in[15] 0
6 *14885:weight_in[14] *454:30 0
7 *14885:weight_in[14] *520:10 4.82745e-05
8 *309:8 *347:16 6.3761e-05
9 *309:18 *313:18 0.000843593
10 *309:18 *339:10 0.000684934
11 *309:18 *509:26 0.000770332
12 *606:DIODE *309:8 7.43941e-05
13 *14885:weight_in[13] *14885:weight_in[14] 0
14 *307:6 *309:18 0.000129228
15 *308:14 *309:18 0.000621019
*RES
1 *14663:X *309:8 48.6264 
2 *309:8 *309:18 49.2407 
3 *309:18 *14885:weight_in[14] 25.6332 
*END

*D_NET *310 0.00833431
*CONN
*I *14885:weight_in[15] I *D processing_element
*I *14664:X O *D sky130_fd_sc_hd__buf_1
*CAP
1 *14885:weight_in[15] 0.000525189
2 *14664:X 0
3 *310:18 0.00270241
4 *310:10 0.00277444
5 *310:6 0.000597216
6 *14885:weight_in[15] *14885:valid_in 0
7 *310:10 *349:8 0.000804161
8 *310:10 *352:10 0.000545025
9 *310:10 *354:16 0.000226406
10 *310:18 *454:30 0
11 *310:18 *520:10 0.000159457
12 *14885:weight_in[14] *14885:weight_in[15] 0
*RES
1 *14664:X *310:6 38 
2 *310:6 *310:10 35.9214 
3 *310:10 *310:18 49.0482 
4 *310:18 *14885:weight_in[15] 1.96 
*END

*D_NET *311 0.0105129
*CONN
*I *14885:weight_in[1] I *D processing_element
*I *14665:X O *D sky130_fd_sc_hd__buf_1
*CAP
1 *14885:weight_in[1] 0.00061208
2 *14665:X 0.00203137
3 *311:10 0.00183947
4 *311:6 0.00325876
5 *14885:weight_in[1] *14885:weight_in[2] 0
6 *311:10 *14885:weight_in[4] 9.1961e-05
7 *311:10 *454:30 0.00264804
8 *311:10 *520:10 0
9 *608:DIODE *311:6 3.12488e-05
10 *14885:weight_in[0] *14885:weight_in[1] 0
*RES
1 *14665:X *311:6 45.5371 
2 *311:6 *311:10 49.8311 
3 *311:10 *14885:weight_in[1] 10.2176 
*END

*D_NET *312 0.00913657
*CONN
*I *14885:weight_in[2] I *D processing_element
*I *14666:X O *D sky130_fd_sc_hd__buf_1
*CAP
1 *14885:weight_in[2] 0.0022312
2 *14666:X 0
3 *312:10 0.00297385
4 *312:6 0.000742659
5 *14885:weight_in[2] *14885:weight_in[3] 0
6 *14885:weight_in[2] *316:8 0.000331355
7 *14885:weight_in[2] *346:18 2.45371e-05
8 *14885:weight_in[2] *353:18 2.30499e-05
9 *312:10 *349:8 0.000597766
10 *312:10 *352:10 0.000732225
11 *312:10 *509:16 0.000459185
12 *613:DIODE *14885:weight_in[2] 7.43308e-05
13 *14885:weight_in[1] *14885:weight_in[2] 0
14 *304:14 *312:10 0.000946412
*RES
1 *14666:X *312:6 38 
2 *312:6 *312:10 42.9643 
3 *312:10 *14885:weight_in[2] 45.2266 
*END

*D_NET *313 0.072544
*CONN
*I *14885:act_in[4] I *D processing_element
*I *789:DIODE I *D sky130_fd_sc_hd__diode_2
*I *14667:X O *D sky130_fd_sc_hd__clkbuf_4
*CAP
1 *14885:act_in[4] 0.000737273
2 *789:DIODE 0
3 *14667:X 0.000176109
4 *313:22 0.00162439
5 *313:18 0.00775862
6 *313:16 0.00783318
7 *313:10 0.0053715
8 *313:8 0.00458593
9 *313:10 *357:10 0.00245807
10 *313:10 *487:10 0.00235914
11 *313:16 *450:14 9.84794e-05
12 *313:18 *314:14 0.000971755
13 *313:18 *319:18 0.000112169
14 *313:18 *339:10 0.0040126
15 *313:18 *350:10 0.0231647
16 *313:18 *401:10 0.00154061
17 *313:18 *450:14 0.00061963
18 *313:18 *455:10 0.00265456
19 *313:18 *509:26 0.000118797
20 *621:DIODE *313:8 3.22465e-05
21 *14885:act_in[3] *14885:act_in[4] 0
22 *4:13 *313:10 8.09487e-05
23 *7:13 *313:10 3.66799e-05
24 *13:13 *313:8 0.000131304
25 *301:12 *313:10 0
26 *301:20 *313:18 0.0040043
27 *305:18 *313:18 0.000278634
28 *308:14 *313:18 0.000938779
29 *309:18 *313:18 0.000843593
*RES
1 *14667:X *313:8 41.0036 
2 *313:8 *313:10 128.677 
3 *313:10 *313:16 43.9614 
4 *313:16 *313:18 303.692 
5 *313:18 *313:22 25.15 
6 *313:22 *789:DIODE 23 
7 *313:22 *14885:act_in[4] 34.9242 
*END

*D_NET *314 0.0095873
*CONN
*I *14885:weight_in[3] I *D processing_element
*I *14668:X O *D sky130_fd_sc_hd__buf_1
*CAP
1 *14885:weight_in[3] 0.00108963
2 *14668:X 0.000900468
3 *314:14 0.00225144
4 *314:8 0.00206228
5 *14885:weight_in[3] *14885:weight_in[4] 0
6 *14885:weight_in[3] *346:18 2.45371e-05
7 *14885:weight_in[3] *353:18 2.30499e-05
8 *314:14 *339:10 0.00191325
9 *611:DIODE *314:8 6.99175e-05
10 *14885:weight_in[2] *14885:weight_in[3] 0
11 *301:20 *314:14 0.000280978
12 *313:18 *314:14 0.000971755
*RES
1 *14668:X *314:8 48.15 
2 *314:8 *314:14 47.915 
3 *314:14 *14885:weight_in[3] 27.4538 
*END

*D_NET *315 0.00839056
*CONN
*I *14885:weight_in[4] I *D processing_element
*I *14669:X O *D sky130_fd_sc_hd__buf_1
*CAP
1 *14885:weight_in[4] 0.00116288
2 *14669:X 0.00210014
3 *315:6 0.00326302
4 *14885:weight_in[4] *14885:weight_in[5] 0
5 *14885:weight_in[4] *14885:weight_in[6] 7.8712e-05
6 *14885:weight_in[4] *454:30 0
7 *14885:weight_in[4] *520:10 0.00161951
8 *612:DIODE *315:6 7.43308e-05
9 *14885:weight_in[3] *14885:weight_in[4] 0
10 *311:10 *14885:weight_in[4] 9.1961e-05
*RES
1 *14669:X *315:6 46.9664 
2 *315:6 *14885:weight_in[4] 45.7054 
*END

*D_NET *316 0.00909104
*CONN
*I *14885:weight_in[5] I *D processing_element
*I *14670:X O *D sky130_fd_sc_hd__buf_1
*CAP
1 *14885:weight_in[5] 0.00116738
2 *14670:X 0.00173413
3 *316:8 0.00290152
4 *14885:weight_in[5] *14885:weight_in[6] 0
5 *14885:weight_in[5] *355:18 0.00144247
6 *14885:weight_in[5] *476:14 0.00143986
7 *613:DIODE *316:8 7.43308e-05
8 *14885:weight_in[2] *316:8 0.000331355
9 *14885:weight_in[4] *14885:weight_in[5] 0
*RES
1 *14670:X *316:8 44.4807 
2 *316:8 *14885:weight_in[5] 44.5457 
*END

*D_NET *317 0.00693054
*CONN
*I *14885:weight_in[6] I *D processing_element
*I *14671:X O *D sky130_fd_sc_hd__buf_1
*CAP
1 *14885:weight_in[6] 0.000864901
2 *14671:X 0.00205423
3 *317:6 0.00291913
4 *14885:weight_in[6] *14885:weight_in[7] 0.000409619
5 *14885:weight_in[6] *454:30 0.000310282
6 *14885:weight_in[6] *520:10 0.0002448
7 *614:DIODE *317:6 4.88684e-05
8 *14885:weight_in[4] *14885:weight_in[6] 7.8712e-05
9 *14885:weight_in[5] *14885:weight_in[6] 0
*RES
1 *14671:X *317:6 46.49 
2 *317:6 *14885:weight_in[6] 37.3398 
*END

*D_NET *318 0.00640985
*CONN
*I *14885:weight_in[7] I *D processing_element
*I *14672:X O *D sky130_fd_sc_hd__buf_1
*CAP
1 *14885:weight_in[7] 0.00078702
2 *14672:X 0.00174951
3 *318:6 0.00253653
4 *14885:weight_in[7] *14885:weight_in[8] 0
5 *14885:weight_in[7] *454:30 0
6 *14885:weight_in[7] *520:10 0.000849977
7 *615:DIODE *318:6 7.71928e-05
8 *14885:weight_in[6] *14885:weight_in[7] 0.000409619
*RES
1 *14672:X *318:6 46.9664 
2 *318:6 *14885:weight_in[7] 35.8454 
*END

*D_NET *319 0.00603921
*CONN
*I *14885:weight_in[8] I *D processing_element
*I *14673:X O *D sky130_fd_sc_hd__buf_1
*CAP
1 *14885:weight_in[8] 0.000537159
2 *14673:X 0.000880796
3 *319:18 0.00189346
4 *319:8 0.0022371
5 *14885:weight_in[8] *14885:weight_in[9] 0
6 *319:18 *339:10 0.000225265
7 *319:18 *454:30 0
8 *319:18 *520:10 7.60729e-05
9 *616:DIODE *319:8 7.71928e-05
10 *14885:weight_in[7] *14885:weight_in[8] 0
11 *313:18 *319:18 0.000112169
*RES
1 *14673:X *319:8 48.15 
2 *319:8 *319:18 47.9489 
3 *319:18 *14885:weight_in[8] 9.96 
*END

*D_NET *320 0.00548338
*CONN
*I *14885:weight_in[9] I *D processing_element
*I *14674:X O *D sky130_fd_sc_hd__buf_1
*CAP
1 *14885:weight_in[9] 0.000585522
2 *14674:X 0.00210161
3 *320:6 0.00268714
4 *14885:weight_in[9] *454:30 0
5 *14885:weight_in[9] *520:10 7.60729e-05
6 *617:DIODE *320:6 3.30379e-05
7 *14885:weight_in[10] *14885:weight_in[9] 0
8 *14885:weight_in[8] *14885:weight_in[9] 0
*RES
1 *14674:X *320:6 46.9664 
2 *320:6 *14885:weight_in[9] 25.9854 
*END

*D_NET *321 0.0928736
*CONN
*I *14886:weight_in[0] I *D processing_element
*I *844:DIODE I *D sky130_fd_sc_hd__diode_2
*I *14675:X O *D sky130_fd_sc_hd__buf_4
*CAP
1 *14886:weight_in[0] 0.000835485
2 *844:DIODE 0.00036685
3 *14675:X 0.000218251
4 *321:20 0.00120233
5 *321:18 0.00210914
6 *321:16 0.00210914
7 *321:14 0.00822181
8 *321:12 0.00822181
9 *321:10 0.00851356
10 *321:8 0.00873182
11 *14886:weight_in[0] *14886:load_weight 1.59585e-05
12 *14886:weight_in[0] *338:18 0.000134294
13 *321:10 *329:8 0
14 *321:10 *330:10 0
15 *321:10 *331:10 0
16 *321:10 *333:14 0
17 *321:10 *334:12 0
18 *321:10 *334:14 0.000814208
19 *321:10 *336:16 0.000337651
20 *321:10 *338:10 0.00269722
21 *321:10 *445:17 0.000193173
22 *321:14 *322:12 0.00910746
23 *321:14 *331:18 0.0288471
24 *321:18 *322:16 0
25 *321:18 *330:22 0
26 *321:18 *331:22 0.0067432
27 *321:18 *332:18 0
28 *321:18 *367:18 0.00314196
29 *618:DIODE *321:8 0.000143655
30 *35:13 *321:14 0.000167499
*RES
1 *14675:X *321:8 41.9564 
2 *321:8 *321:10 187.485 
3 *321:10 *321:12 15 
4 *321:12 *321:14 316.97 
5 *321:14 *321:16 15 
6 *321:16 *321:18 87.4764 
7 *321:18 *321:20 15 
8 *321:20 *844:DIODE 27.4329 
9 *321:20 *14886:weight_in[0] 34.784 
*END

*D_NET *322 0.0857711
*CONN
*I *14886:weight_in[10] I *D processing_element
*I *845:DIODE I *D sky130_fd_sc_hd__diode_2
*I *14676:X O *D sky130_fd_sc_hd__buf_4
*CAP
1 *14886:weight_in[10] 0.000815091
2 *845:DIODE 0.000216171
3 *14676:X 0
4 *322:18 0.00103126
5 *322:16 0.0022927
6 *322:14 0.0022927
7 *322:12 0.00860441
8 *322:10 0.00898511
9 *322:6 0.000380704
10 *14886:weight_in[10] *14886:weight_in[11] 1.2632e-05
11 *14886:weight_in[10] *327:10 5.52574e-05
12 *322:10 *329:12 0.00132701
13 *322:10 *337:14 0.000681131
14 *322:12 *323:6 1.36806e-05
15 *322:12 *331:18 1.32939e-05
16 *322:12 *334:18 5.14746e-06
17 *322:12 *336:22 0.028329
18 *322:12 *358:14 0.000456819
19 *322:16 *323:10 0.0112745
20 *322:16 *331:22 1.02387e-05
21 *322:16 *334:22 0.000495455
22 *322:16 *337:20 0.00930266
23 *322:16 *367:18 0
24 *620:DIODE *322:12 6.70361e-05
25 *245:17 *845:DIODE 1.56662e-06
26 *321:14 *322:12 0.00910746
27 *321:18 *322:16 0
*RES
1 *14676:X *322:6 38 
2 *322:6 *322:10 32.4 
3 *322:10 *322:12 322.687 
4 *322:12 *322:14 15 
5 *322:14 *322:16 144.876 
6 *322:16 *322:18 15 
7 *322:18 *845:DIODE 25.5271 
8 *322:18 *14886:weight_in[10] 36.3376 
*END

*D_NET *323 0.0750579
*CONN
*I *846:DIODE I *D sky130_fd_sc_hd__diode_2
*I *14886:weight_in[11] I *D processing_element
*I *14677:X O *D sky130_fd_sc_hd__clkbuf_4
*CAP
1 *846:DIODE 0.000239877
2 *14886:weight_in[11] 0.000119027
3 *14677:X 0
4 *323:18 0.00076884
5 *323:10 0.00360479
6 *323:8 0.0027151
7 *323:6 0.0118748
8 *323:4 0.0118748
9 *846:DIODE *326:14 0.000158229
10 *14886:weight_in[11] *14886:weight_in[12] 0
11 *323:6 *336:22 0.00278902
12 *323:6 *358:14 0.0125122
13 *323:10 *326:14 0.00883963
14 *323:10 *358:18 6.33258e-05
15 *323:10 *360:16 0.00129286
16 *323:10 *367:18 0
17 *323:18 *327:10 1.09886e-05
18 *620:DIODE *323:6 4.67488e-05
19 *14886:weight_in[10] *14886:weight_in[11] 1.2632e-05
20 *35:13 *323:6 0.00684679
21 *322:12 *323:6 1.36806e-05
22 *322:16 *323:10 0.0112745
*RES
1 *14677:X *323:4 23 
2 *323:4 *323:6 322.687 
3 *323:6 *323:8 15 
4 *323:8 *323:10 150.158 
5 *323:10 *323:18 42.3768 
6 *323:18 *14886:weight_in[11] 8.3808 
7 *323:10 *846:DIODE 42.3086 
*END

*D_NET *324 0.0864533
*CONN
*I *14885:act_in[5] I *D processing_element
*I *790:DIODE I *D sky130_fd_sc_hd__diode_2
*I *14678:X O *D sky130_fd_sc_hd__clkbuf_4
*CAP
1 *14885:act_in[5] 0.000729287
2 *790:DIODE 0
3 *14678:X 0.000570831
4 *324:22 0.00173437
5 *324:16 0.00148861
6 *324:10 0.00867972
7 *324:8 0.00876702
8 *324:10 *335:10 0.0302146
9 *324:10 *339:10 0.00103034
10 *324:10 *340:16 0.0261266
11 *324:10 *343:20 0.00361081
12 *324:16 *509:32 0.000766631
13 *324:22 *351:18 0.00166915
14 *632:DIODE *324:8 5.72217e-05
15 *303:18 *324:10 0.00100806
*RES
1 *14678:X *324:8 45.7679 
2 *324:8 *324:10 407.574 
3 *324:10 *324:16 40.6264 
4 *324:16 *324:22 39.0286 
5 *324:22 *790:DIODE 23 
6 *324:22 *14885:act_in[5] 34.9242 
*END

*D_NET *325 0.0698806
*CONN
*I *847:DIODE I *D sky130_fd_sc_hd__diode_2
*I *14886:weight_in[12] I *D processing_element
*I *14679:X O *D sky130_fd_sc_hd__clkbuf_4
*CAP
1 *847:DIODE 0
2 *14886:weight_in[12] 0.000309827
3 *14679:X 0.00107116
4 *325:36 0.000776294
5 *325:16 0.00388135
6 *325:14 0.00279523
7 *325:12 0.0225192
8 *325:10 0.0235904
9 *325:16 *855:DIODE 8.21456e-06
10 *325:16 *857:DIODE 4.35681e-06
11 *325:16 *327:10 0.00425537
12 *325:16 *333:28 1.11421e-05
13 *325:16 *333:36 0.000918243
14 *325:16 *336:26 0.00617854
15 *325:16 *336:36 0.000313188
16 *325:16 *338:18 7.31798e-05
17 *325:16 *359:18 0.00208636
18 *325:16 *362:16 0
19 *325:16 *363:20 0.000771145
20 *325:16 *364:20 0.000135143
21 *325:36 *327:10 0.000125218
22 *325:36 *362:16 0
23 *622:DIODE *325:10 5.70419e-05
24 *14886:weight_in[11] *14886:weight_in[12] 0
*RES
1 *14679:X *325:10 42.0054 
2 *325:10 *325:12 294.816 
3 *325:12 *325:14 15 
4 *325:14 *325:16 138.009 
5 *325:16 *14886:weight_in[12] 9.09013 
6 *325:16 *325:36 30.1939 
7 *325:36 *847:DIODE 23 
*END

*D_NET *326 0.0617874
*CONN
*I *14886:weight_in[13] I *D processing_element
*I *848:DIODE I *D sky130_fd_sc_hd__diode_2
*I *14680:X O *D sky130_fd_sc_hd__clkbuf_4
*CAP
1 *14886:weight_in[13] 0.000834001
2 *848:DIODE 0.000146384
3 *14680:X 0.000966043
4 *326:16 0.000980385
5 *326:14 0.00315159
6 *326:12 0.00315159
7 *326:10 0.0185083
8 *326:8 0.0194743
9 *14886:weight_in[13] *14886:weight_in[14] 2.42009e-05
10 *14886:weight_in[13] *327:10 5.14372e-05
11 *326:14 *328:16 0.00423257
12 *326:14 *360:16 0.000965556
13 *326:14 *373:18 0.000180264
14 *623:DIODE *326:8 5.67058e-05
15 *846:DIODE *326:14 0.000158229
16 *246:17 *14886:weight_in[13] 4.32662e-05
17 *246:19 *326:14 2.29192e-05
18 *323:10 *326:14 0.00883963
*RES
1 *14680:X *326:8 41.3839 
2 *326:8 *326:10 305.297 
3 *326:10 *326:12 15 
4 *326:12 *326:14 129.381 
5 *326:14 *326:16 15 
6 *326:16 *848:DIODE 24.5743 
7 *326:16 *14886:weight_in[13] 37.2904 
*END

*D_NET *327 0.0546446
*CONN
*I *849:DIODE I *D sky130_fd_sc_hd__diode_2
*I *14886:weight_in[14] I *D processing_element
*I *14681:X O *D sky130_fd_sc_hd__clkbuf_4
*CAP
1 *849:DIODE 0
2 *14886:weight_in[14] 0.000990492
3 *14681:X 0
4 *327:28 0.000757731
5 *327:10 0.00246594
6 *327:8 0.00223318
7 *327:6 0.0118462
8 *327:4 0.0118462
9 *327:6 *364:16 0
10 *327:6 *373:14 0.0125839
11 *327:10 *338:18 0.00685926
12 *327:10 *362:16 0
13 *327:10 *363:20 0.000135444
14 *327:10 *529:75 0.000342859
15 *327:28 *362:16 1.09783e-05
16 *624:DIODE *327:6 4.98398e-05
17 *14886:weight_in[10] *327:10 5.52574e-05
18 *14886:weight_in[13] *14886:weight_in[14] 2.42009e-05
19 *14886:weight_in[13] *327:10 5.14372e-05
20 *323:18 *327:10 1.09886e-05
21 *325:16 *327:10 0.00425537
22 *325:36 *327:10 0.000125218
*RES
1 *14681:X *327:4 23 
2 *327:4 *327:6 311.729 
3 *327:6 *327:8 15 
4 *327:8 *327:10 113.711 
5 *327:10 *14886:weight_in[14] 8.88853 
6 *14886:weight_in[14] *327:28 34.8383 
7 *327:28 *849:DIODE 23 
*END

*D_NET *328 0.0511457
*CONN
*I *14886:weight_in[15] I *D processing_element
*I *850:DIODE I *D sky130_fd_sc_hd__diode_2
*I *14682:X O *D sky130_fd_sc_hd__clkbuf_4
*CAP
1 *14886:weight_in[15] 0.000915481
2 *850:DIODE 6.27375e-05
3 *14682:X 0
4 *328:18 0.000978218
5 *328:16 0.00442719
6 *328:14 0.00442719
7 *328:12 0.0156808
8 *328:10 0.0159367
9 *328:6 0.000255926
10 *14886:weight_in[15] *14886:valid_in 0
11 *14886:weight_in[15] *362:16 0
12 *328:10 *365:10 0.00106001
13 *328:10 *370:8 0.00106001
14 *328:12 *373:14 0
15 *328:16 *842:DIODE 2.33476e-05
16 *328:16 *859:DIODE 2.26497e-05
17 *328:16 *458:99 2.89829e-05
18 *243:19 *328:16 0
19 *245:19 *328:16 0.00201271
20 *246:19 *328:16 0
21 *300:66 *328:16 2.11157e-05
22 *326:14 *328:16 0.00423257
*RES
1 *14682:X *328:6 38 
2 *328:6 *328:10 28.8786 
3 *328:10 *328:12 324.116 
4 *328:12 *328:14 15 
5 *328:14 *328:16 120.93 
6 *328:16 *328:18 15 
7 *328:18 *850:DIODE 23.6214 
8 *328:18 *14886:weight_in[15] 38.2433 
*END

*D_NET *329 0.112496
*CONN
*I *851:DIODE I *D sky130_fd_sc_hd__diode_2
*I *14886:weight_in[1] I *D processing_element
*I *14683:X O *D sky130_fd_sc_hd__buf_4
*CAP
1 *851:DIODE 0.000655189
2 *14886:weight_in[1] 0.000277498
3 *14683:X 0
4 *329:20 0.00236138
5 *329:18 0.0014287
6 *329:16 0.0040753
7 *329:14 0.0040753
8 *329:12 0.00105469
9 *329:10 0.00108198
10 *329:8 0.00445562
11 *329:6 0.00442834
12 *851:DIODE *330:22 1.23172e-05
13 *851:DIODE *362:16 2.11066e-05
14 *14886:weight_in[1] *14886:weight_in[2] 0
15 *329:8 *330:10 0.00762707
16 *329:8 *330:14 2.34364e-05
17 *329:10 *330:12 6.49555e-06
18 *329:12 *330:14 0.0041338
19 *329:12 *337:10 0.00254952
20 *329:12 *337:14 6.09201e-05
21 *329:16 *330:18 0.000107476
22 *329:16 *331:18 6.53382e-05
23 *329:16 *333:20 0.0284193
24 *329:16 *334:18 0.0284582
25 *329:20 *330:22 0.00705814
26 *329:20 *362:16 0.00710788
27 *329:20 *363:20 0.00149011
28 *329:20 *367:18 0
29 *35:13 *329:16 0.000133446
30 *194:13 *329:8 0
31 *321:10 *329:8 0
32 *322:10 *329:12 0.00132701
*RES
1 *14683:X *329:6 38 
2 *329:6 *329:8 117.585 
3 *329:8 *329:10 0.621429 
4 *329:10 *329:12 54.1989 
5 *329:12 *329:14 15 
6 *329:14 *329:16 315.064 
7 *329:16 *329:18 15 
8 *329:18 *329:20 91.8782 
9 *329:20 *14886:weight_in[1] 8.672 
10 *329:20 *851:DIODE 47.9946 
*END

*D_NET *330 0.0975872
*CONN
*I *852:DIODE I *D sky130_fd_sc_hd__diode_2
*I *14886:weight_in[2] I *D processing_element
*I *14684:X O *D sky130_fd_sc_hd__buf_4
*CAP
1 *852:DIODE 0.000623122
2 *14886:weight_in[2] 0.0003193
3 *14684:X 3.68215e-05
4 *330:22 0.00401431
5 *330:20 0.00307189
6 *330:18 0.0116333
7 *330:16 0.0116333
8 *330:14 0.00108515
9 *330:12 0.0011239
10 *330:10 0.00219534
11 *330:8 0.00219341
12 *852:DIODE *362:16 8.21456e-06
13 *330:10 *331:10 0.00628715
14 *330:10 *331:14 1.78655e-05
15 *330:12 *331:12 7.65863e-06
16 *330:14 *331:14 0.00413316
17 *330:14 *333:16 3.72639e-05
18 *330:14 *337:14 0
19 *330:18 *333:20 0.0284176
20 *330:18 *334:18 1.59071e-05
21 *330:22 *332:18 0
22 *330:22 *362:16 0.000223171
23 *330:22 *363:20 0.00148553
24 *330:22 *367:18 0
25 *627:DIODE *330:8 5.50049e-05
26 *851:DIODE *330:22 1.23172e-05
27 *14886:weight_in[1] *14886:weight_in[2] 0
28 *321:10 *330:10 0
29 *321:18 *330:22 0
30 *329:8 *330:10 0.00762707
31 *329:8 *330:14 2.34364e-05
32 *329:10 *330:12 6.49555e-06
33 *329:12 *330:14 0.0041338
34 *329:16 *330:18 0.000107476
35 *329:20 *330:22 0.00705814
*RES
1 *14684:X *330:8 38.6214 
2 *330:8 *330:10 99.9775 
3 *330:10 *330:12 0.621429 
4 *330:12 *330:14 55.6075 
5 *330:14 *330:16 15 
6 *330:16 *330:18 315.064 
7 *330:18 *330:20 15 
8 *330:20 *330:22 96.8082 
9 *330:22 *14886:weight_in[2] 8.75787 
10 *330:22 *852:DIODE 47.5182 
*END

*D_NET *331 0.112105
*CONN
*I *14886:weight_in[3] I *D processing_element
*I *853:DIODE I *D sky130_fd_sc_hd__diode_2
*I *14685:X O *D sky130_fd_sc_hd__buf_4
*CAP
1 *14886:weight_in[3] 0.000829853
2 *853:DIODE 0.000329359
3 *14685:X 6.82186e-05
4 *331:24 0.00115921
5 *331:22 0.00183102
6 *331:20 0.00183102
7 *331:18 0.00417235
8 *331:16 0.00417235
9 *331:14 0.0010356
10 *331:12 0.0010584
11 *331:10 0.00211662
12 *331:8 0.00216205
13 *14886:weight_in[3] *338:18 0.000106508
14 *331:10 *333:14 0.00363
15 *331:10 *333:16 2.34364e-05
16 *331:12 *333:14 7.65863e-06
17 *331:14 *333:16 0.0041957
18 *331:18 *334:18 0.0289743
19 *331:22 *332:18 0
20 *331:22 *334:22 0.0080433
21 *628:DIODE *331:8 9.58714e-05
22 *35:13 *331:18 0.000136684
23 *321:10 *331:10 0
24 *321:14 *331:18 0.0288471
25 *321:18 *331:22 0.0067432
26 *322:12 *331:18 1.32939e-05
27 *322:16 *331:22 1.02387e-05
28 *329:16 *331:18 6.53382e-05
29 *330:10 *331:10 0.00628715
30 *330:10 *331:14 1.78655e-05
31 *330:12 *331:12 7.65863e-06
32 *330:14 *331:14 0.00413316
*RES
1 *14685:X *331:8 39.0979 
2 *331:8 *331:10 82.3704 
3 *331:10 *331:12 0.621429 
4 *331:12 *331:14 54.9032 
5 *331:14 *331:16 15 
6 *331:16 *331:18 319.829 
7 *331:18 *331:20 15 
8 *331:20 *331:22 104.027 
9 *331:22 *331:24 15 
10 *331:24 *853:DIODE 26.9564 
11 *331:24 *14886:weight_in[3] 34.9083 
*END

*D_NET *332 0.0755892
*CONN
*I *14886:weight_in[4] I *D processing_element
*I *854:DIODE I *D sky130_fd_sc_hd__diode_2
*I *14686:X O *D sky130_fd_sc_hd__buf_4
*CAP
1 *14886:weight_in[4] 0.000452355
2 *854:DIODE 0.000441846
3 *14686:X 0
4 *332:18 0.0040361
5 *332:16 0.0031419
6 *332:14 0.0039243
7 *332:12 0.0039243
8 *332:10 0.00668629
9 *332:8 0.00668629
10 *332:6 0.00423347
11 *332:4 0.00423347
12 *14886:weight_in[4] *14886:weight_in[5] 0
13 *332:10 *358:10 0.00329599
14 *332:10 *369:10 0.000522472
15 *332:14 *359:14 0.0212867
16 *332:14 *367:14 0.000293458
17 *332:14 *371:12 0.0122935
18 *332:18 *334:22 0
19 *332:18 *362:16 0
20 *629:DIODE *332:6 0.000136738
21 *321:18 *332:18 0
22 *330:22 *332:18 0
23 *331:22 *332:18 0
*RES
1 *14686:X *332:4 23 
2 *332:4 *332:6 78.7557 
3 *332:6 *332:8 15 
4 *332:8 *332:10 162.131 
5 *332:10 *332:12 15 
6 *332:12 *332:14 240.265 
7 *332:14 *332:16 15 
8 *332:16 *332:18 68.4607 
9 *332:18 *854:DIODE 44.3386 
10 *332:18 *14886:weight_in[4] 9.27307 
*END

*D_NET *333 0.105776
*CONN
*I *855:DIODE I *D sky130_fd_sc_hd__diode_2
*I *14886:weight_in[5] I *D processing_element
*I *14687:X O *D sky130_fd_sc_hd__buf_4
*CAP
1 *855:DIODE 0.000709323
2 *14886:weight_in[5] 0.00014887
3 *14687:X 0.000119014
4 *333:36 0.00131208
5 *333:28 0.0011874
6 *333:26 0.00163352
7 *333:22 0.000900009
8 *333:20 0.00392655
9 *333:18 0.00392655
10 *333:16 0.00108498
11 *333:14 0.00226179
12 *333:10 0.00129582
13 *855:DIODE *336:36 1.23172e-05
14 *333:14 *334:12 0.00232081
15 *333:14 *334:14 1.11421e-05
16 *333:14 *336:18 7.37814e-06
17 *333:16 *334:14 7.10099e-05
18 *333:16 *336:18 0.00412178
19 *333:16 *338:10 1.34354e-05
20 *333:26 *336:26 0.00336365
21 *333:26 *356:18 0.00254309
22 *333:26 *362:16 0.000408504
23 *333:26 *363:20 0.0004931
24 *333:28 *336:26 0.00197348
25 *333:28 *362:16 0.0038348
26 *333:28 *363:20 0.000569112
27 *333:36 *336:36 0.00158202
28 *333:36 *362:16 2.13808e-05
29 *333:36 *363:20 0.000118027
30 *630:DIODE *333:10 0.000136738
31 *14886:weight_in[4] *14886:weight_in[5] 0
32 *321:10 *333:14 0
33 *325:16 *855:DIODE 8.21456e-06
34 *325:16 *333:28 1.11421e-05
35 *325:16 *333:36 0.000918243
36 *329:16 *333:20 0.0284193
37 *330:14 *333:16 3.72639e-05
38 *330:18 *333:20 0.0284176
39 *331:10 *333:14 0.00363
40 *331:10 *333:16 2.34364e-05
41 *331:12 *333:14 7.65863e-06
42 *331:14 *333:16 0.0041957
*RES
1 *14687:X *333:10 40.0714 
2 *333:10 *333:14 48.1296 
3 *333:14 *333:16 56.6639 
4 *333:16 *333:18 15 
5 *333:18 *333:20 312.206 
6 *333:20 *333:22 15 
7 *333:22 *333:26 44.7532 
8 *333:26 *333:28 48.9479 
9 *333:28 *333:36 23.1379 
10 *333:36 *14886:weight_in[5] 8.4144 
11 *333:36 *855:DIODE 49.4239 
*END

*D_NET *334 0.104799
*CONN
*I *14886:weight_in[6] I *D processing_element
*I *856:DIODE I *D sky130_fd_sc_hd__diode_2
*I *14688:X O *D sky130_fd_sc_hd__buf_4
*CAP
1 *14886:weight_in[6] 0.000757527
2 *856:DIODE 0.000258155
3 *14688:X 0.000140265
4 *334:24 0.00101568
5 *334:22 0.002092
6 *334:20 0.002092
7 *334:18 0.00417878
8 *334:16 0.00417878
9 *334:14 0.00113828
10 *334:12 0.00204111
11 *334:8 0.00104309
12 *14886:weight_in[6] *338:18 2.31209e-05
13 *334:12 *336:16 0.000978298
14 *334:14 *336:18 0.00413568
15 *334:14 *338:10 0.00274743
16 *334:22 *337:20 0.00850066
17 *631:DIODE *334:8 0.000135037
18 *35:13 *334:18 0.000133446
19 *321:10 *334:12 0
20 *321:10 *334:14 0.000814208
21 *322:12 *334:18 5.14746e-06
22 *322:16 *334:22 0.000495455
23 *329:16 *334:18 0.0284582
24 *330:18 *334:18 1.59071e-05
25 *331:18 *334:18 0.0289743
26 *331:22 *334:22 0.0080433
27 *332:18 *334:22 0
28 *333:14 *334:12 0.00232081
29 *333:14 *334:14 1.11421e-05
30 *333:16 *334:14 7.10099e-05
*RES
1 *14688:X *334:8 40.0507 
2 *334:8 *334:12 31.3511 
3 *334:12 *334:14 56.6639 
4 *334:14 *334:16 15 
5 *334:16 *334:18 318.876 
6 *334:18 *334:20 15 
7 *334:20 *334:22 121.634 
8 *334:22 *334:24 15 
9 *334:24 *856:DIODE 26.48 
10 *334:24 *14886:weight_in[6] 34.3283 
*END

*D_NET *335 0.0857162
*CONN
*I *14885:act_in[6] I *D processing_element
*I *791:DIODE I *D sky130_fd_sc_hd__diode_2
*I *14689:X O *D sky130_fd_sc_hd__clkbuf_4
*CAP
1 *14885:act_in[6] 0.000757089
2 *791:DIODE 0
3 *14689:X 0.000535255
4 *335:22 0.000981478
5 *335:16 0.00106485
6 *335:10 0.00936689
7 *335:8 0.00906168
8 *14885:act_in[6] *14885:act_in[7] 0
9 *335:10 *340:16 0.000768044
10 *335:10 *341:16 0.000877477
11 *335:10 *343:20 0.00422233
12 *335:10 *345:16 0.0255242
13 *335:10 *349:16 0.00114895
14 *335:10 *354:24 0
15 *335:10 *530:8 0
16 *335:22 *355:18 0.000569189
17 *335:22 *476:14 0.000566949
18 *643:DIODE *335:8 5.72217e-05
19 *324:10 *335:10 0.0302146
*RES
1 *14689:X *335:8 45.2914 
2 *335:8 *335:10 416.378 
3 *335:10 *335:16 42.5321 
4 *335:16 *335:22 23.1614 
5 *335:22 *791:DIODE 23 
6 *335:22 *14885:act_in[6] 28.6752 
*END

*D_NET *336 0.102749
*CONN
*I *857:DIODE I *D sky130_fd_sc_hd__diode_2
*I *14886:weight_in[7] I *D processing_element
*I *14690:X O *D sky130_fd_sc_hd__buf_4
*CAP
1 *857:DIODE 0.000657905
2 *14886:weight_in[7] 0.000171245
3 *14690:X 0.000181598
4 *336:36 0.00128074
5 *336:34 0.000605435
6 *336:26 0.00188501
7 *336:24 0.00173116
8 *336:22 0.00429465
9 *336:20 0.00429465
10 *336:18 0.000984949
11 *336:16 0.00136507
12 *336:8 0.000561722
13 *857:DIODE *362:16 1.23172e-05
14 *336:22 *358:14 0.0213345
15 *336:26 *356:18 9.83058e-05
16 *336:26 *359:18 0.000588682
17 *336:26 *363:20 0.000851402
18 *336:36 *362:16 0.0024803
19 *336:36 *363:20 0.000261164
20 *633:DIODE *336:8 0.000135037
21 *855:DIODE *336:36 1.23172e-05
22 *35:13 *336:22 0.00484705
23 *321:10 *336:16 0.000337651
24 *322:12 *336:22 0.028329
25 *323:6 *336:22 0.00278902
26 *325:16 *857:DIODE 4.35681e-06
27 *325:16 *336:26 0.00617854
28 *325:16 *336:36 0.000313188
29 *333:14 *336:18 7.37814e-06
30 *333:16 *336:18 0.00412178
31 *333:26 *336:26 0.00336365
32 *333:28 *336:26 0.00197348
33 *333:36 *336:36 0.00158202
34 *334:12 *336:16 0.000978298
35 *334:14 *336:18 0.00413568
*RES
1 *14690:X *336:8 40.5271 
2 *336:8 *336:16 44.0236 
3 *336:16 *336:18 54.0229 
4 *336:18 *336:20 15 
5 *336:20 *336:22 311.253 
6 *336:22 *336:24 15 
7 *336:24 *336:26 95.2236 
8 *336:26 *336:34 32.6514 
9 *336:34 *336:36 31.6618 
10 *336:36 *14886:weight_in[7] 8.50027 
11 *336:36 *857:DIODE 48.9475 
*END

*D_NET *337 0.0820547
*CONN
*I *14886:weight_in[8] I *D processing_element
*I *858:DIODE I *D sky130_fd_sc_hd__diode_2
*I *14691:X O *D sky130_fd_sc_hd__buf_4
*CAP
1 *14886:weight_in[8] 0.000832505
2 *858:DIODE 0.000254378
3 *14691:X 0
4 *337:22 0.00108688
5 *337:20 0.00185953
6 *337:18 0.00185953
7 *337:16 0.024839
8 *337:14 0.0262489
9 *337:10 0.0026413
10 *337:6 0.00123136
11 *14886:weight_in[8] *338:18 0.000106508
12 *337:14 *338:10 0
13 *187:13 *337:10 0
14 *187:13 *337:14 0
15 *322:10 *337:14 0.000681131
16 *322:16 *337:20 0.00930266
17 *329:12 *337:10 0.00254952
18 *329:12 *337:14 6.09201e-05
19 *330:14 *337:14 0
20 *334:22 *337:20 0.00850066
*RES
1 *14691:X *337:6 38 
2 *337:6 *337:10 34.4375 
3 *337:10 *337:14 47.0968 
4 *337:14 *337:16 323.164 
5 *337:16 *337:18 15 
6 *337:18 *337:20 119.521 
7 *337:20 *337:22 15 
8 *337:22 *858:DIODE 26.0036 
9 *337:22 *14886:weight_in[8] 35.8612 
*END

*D_NET *338 0.0653341
*CONN
*I *859:DIODE I *D sky130_fd_sc_hd__diode_2
*I *14886:weight_in[9] I *D processing_element
*I *14692:X O *D sky130_fd_sc_hd__buf_4
*CAP
1 *859:DIODE 0.000777819
2 *14886:weight_in[9] 0.000941823
3 *14692:X 0.000264266
4 *338:18 0.00412242
5 *338:16 0.00395842
6 *338:14 0.0185059
7 *338:12 0.0185059
8 *338:10 0.00101025
9 *338:8 0.00127452
10 *338:18 *14886:load_weight 5.09072e-05
11 *338:18 *364:20 0.00298018
12 *635:DIODE *338:8 0.000135037
13 *14886:clk *338:18 2.31209e-05
14 *14886:weight_in[0] *338:18 0.000134294
15 *14886:weight_in[3] *338:18 0.000106508
16 *14886:weight_in[6] *338:18 2.31209e-05
17 *14886:weight_in[8] *338:18 0.000106508
18 *243:19 *859:DIODE 0
19 *321:10 *338:10 0.00269722
20 *325:16 *338:18 7.31798e-05
21 *327:10 *338:18 0.00685926
22 *328:16 *859:DIODE 2.26497e-05
23 *333:16 *338:10 1.34354e-05
24 *334:14 *338:10 0.00274743
25 *337:14 *338:10 0
*RES
1 *14692:X *338:8 41.48 
2 *338:8 *338:10 41.3457 
3 *338:10 *338:12 15 
4 *338:12 *338:14 308.394 
5 *338:14 *338:16 15 
6 *338:16 *338:18 129.91 
7 *338:18 *14886:weight_in[9] 8.50773 
8 *14886:weight_in[9] *859:DIODE 48.7104 
*END

*D_NET *339 0.0763933
*CONN
*I *868:DIODE I *D sky130_fd_sc_hd__diode_2
*I *14887:weight_in[0] I *D processing_element
*I *14693:X O *D sky130_fd_sc_hd__clkbuf_4
*CAP
1 *868:DIODE 5.45426e-05
2 *14887:weight_in[0] 0.000921362
3 *14693:X 0.000748837
4 *339:18 0.00218717
5 *339:16 0.00189769
6 *339:10 0.00931586
7 *339:8 0.00937827
8 *14887:weight_in[0] *14887:weight_in[1] 0
9 *14887:weight_in[0] *458:46 0
10 *14887:weight_in[0] *520:10 0
11 *339:10 *340:16 0.0273573
12 *339:10 *343:20 0.00278837
13 *339:10 *368:22 0
14 *339:10 *401:10 0.0039872
15 *339:10 *448:14 0.000258343
16 *339:10 *450:14 0.00121897
17 *339:10 *455:10 0.000856088
18 *339:10 *509:26 0.0010101
19 *339:18 *348:24 0.00126207
20 *339:18 *351:18 0.000278634
21 *339:18 *520:10 0
22 *636:DIODE *339:8 5.62266e-05
23 *301:20 *339:10 0.000193495
24 *303:18 *339:10 0.00444918
25 *305:18 *339:10 0.000144158
26 *308:14 *339:10 0.000163065
27 *309:18 *339:10 0.000684934
28 *313:18 *339:10 0.0040126
29 *314:14 *339:10 0.00191325
30 *319:18 *339:10 0.000225265
31 *324:10 *339:10 0.00103034
*RES
1 *14693:X *339:8 46.7207 
2 *339:8 *339:10 385.389 
3 *339:10 *339:16 40.6264 
4 *339:16 *339:18 30.0771 
5 *339:18 *14887:weight_in[0] 13.6794 
6 *339:18 *868:DIODE 38.6214 
*END

*D_NET *340 0.087807
*CONN
*I *869:DIODE I *D sky130_fd_sc_hd__diode_2
*I *14887:weight_in[10] I *D processing_element
*I *14694:X O *D sky130_fd_sc_hd__clkbuf_4
*CAP
1 *869:DIODE 0
2 *14887:weight_in[10] 0.000798258
3 *14694:X 0
4 *340:24 0.00188718
5 *340:16 0.00960387
6 *340:14 0.00896156
7 *340:8 0.00319577
8 *340:6 0.00274915
9 *14887:weight_in[10] *14887:weight_in[11] 1.70284e-05
10 *14887:weight_in[10] *14887:weight_in[9] 0
11 *14887:weight_in[10] *350:18 4.75766e-05
12 *14887:weight_in[10] *355:18 2.50227e-05
13 *340:8 *341:12 0.000294943
14 *340:8 *351:12 0
15 *340:8 *352:10 0.000505085
16 *340:8 *353:10 0
17 *340:8 *354:12 6.54744e-05
18 *340:8 *354:16 0.000107151
19 *340:8 *355:12 0
20 *340:14 *350:8 0.000741064
21 *340:16 *343:20 0.00347245
22 *340:16 *345:16 0.000921795
23 *340:16 *350:10 0
24 *647:DIODE *340:14 4.65826e-05
25 *215:13 *340:8 0
26 *301:20 *340:16 0.000115145
27 *324:10 *340:16 0.0261266
28 *335:10 *340:16 0.000768044
29 *339:10 *340:16 0.0273573
*RES
1 *14694:X *340:6 38 
2 *340:6 *340:8 58.9529 
3 *340:8 *340:14 39.1971 
4 *340:14 *340:16 398.771 
5 *340:16 *340:24 28.7543 
6 *340:24 *14887:weight_in[10] 26.5217 
7 *340:24 *869:DIODE 23 
*END

*D_NET *341 0.0971321
*CONN
*I *14887:weight_in[11] I *D processing_element
*I *870:DIODE I *D sky130_fd_sc_hd__diode_2
*I *14695:X O *D sky130_fd_sc_hd__clkbuf_4
*CAP
1 *14887:weight_in[11] 0.00069052
2 *870:DIODE 0.000121505
3 *14695:X 0
4 *341:22 0.00181329
5 *341:16 0.00975971
6 *341:14 0.00875844
7 *341:12 0.000958893
8 *341:6 0.000958893
9 *870:DIODE *454:14 0.000141052
10 *14887:weight_in[11] *14887:weight_in[12] 0
11 *341:12 *343:18 0.000260861
12 *341:12 *345:8 0.000114656
13 *341:16 *343:20 0.00707008
14 *341:16 *344:10 0.0326249
15 *341:16 *345:16 0.032195
16 *341:16 *354:24 0
17 *341:16 *530:8 0
18 *341:22 *454:14 0.000474924
19 *14887:weight_in[10] *14887:weight_in[11] 1.70284e-05
20 *335:10 *341:16 0.000877477
21 *340:8 *341:12 0.000294943
*RES
1 *14695:X *341:6 38 
2 *341:6 *341:12 37.33 
3 *341:12 *341:14 15 
4 *341:14 *341:16 444.901 
5 *341:16 *341:22 32.4207 
6 *341:22 *870:DIODE 25.0507 
7 *341:22 *14887:weight_in[11] 34.7792 
*END

*D_NET *342 0.076338
*CONN
*I *14887:weight_in[12] I *D processing_element
*I *871:DIODE I *D sky130_fd_sc_hd__diode_2
*I *14696:X O *D sky130_fd_sc_hd__clkbuf_4
*CAP
1 *14887:weight_in[12] 0.000867981
2 *871:DIODE 0
3 *14696:X 0.000337809
4 *342:26 0.00232113
5 *342:16 0.0159965
6 *342:14 0.0145434
7 *342:12 0.000337809
8 *14887:weight_in[12] *14887:weight_in[13] 0
9 *342:12 *343:18 6.10551e-06
10 *342:12 *345:8 1.34542e-05
11 *342:16 *343:20 0.0339081
12 *342:16 *344:10 0.00645629
13 *342:16 *354:16 0
14 *342:16 *413:10 0.000898643
15 *342:16 *449:14 0.000251021
16 *342:26 *343:30 0
17 *342:26 *350:18 0.000264329
18 *342:26 *355:18 0.000135436
19 *14887:weight_in[11] *14887:weight_in[12] 0
20 *301:20 *342:16 0
*RES
1 *14696:X *342:12 47.2787 
2 *342:12 *342:14 8 
3 *342:14 *342:16 83.832 
4 *342:16 *342:26 37.2512 
5 *342:26 *871:DIODE 23 
6 *342:26 *14887:weight_in[12] 36.6849 
*END

*D_NET *343 0.0965476
*CONN
*I *14887:weight_in[13] I *D processing_element
*I *872:DIODE I *D sky130_fd_sc_hd__diode_2
*I *14697:X O *D sky130_fd_sc_hd__clkbuf_4
*CAP
1 *14887:weight_in[13] 0.000880532
2 *872:DIODE 0
3 *14697:X 0.000153163
4 *343:30 0.00220953
5 *343:20 0.0145815
6 *343:18 0.0149597
7 *343:10 0.00186037
8 *14887:weight_in[13] *14887:weight_in[14] 0
9 *343:10 *345:8 3.79306e-05
10 *343:18 *344:10 0
11 *343:18 *345:8 0
12 *343:20 *345:16 0.00611195
13 *343:30 *14887:weight_in[14] 1.41966e-05
14 *343:30 *350:18 0.000264329
15 *343:30 *355:18 0.000135436
16 *14887:weight_in[12] *14887:weight_in[13] 0
17 *301:20 *343:20 0
18 *324:10 *343:20 0.00361081
19 *335:10 *343:20 0.00422233
20 *339:10 *343:20 0.00278837
21 *340:16 *343:20 0.00347245
22 *341:12 *343:18 0.000260861
23 *341:16 *343:20 0.00707008
24 *342:12 *343:18 6.10551e-06
25 *342:16 *343:20 0.0339081
26 *342:26 *343:30 0
*RES
1 *14697:X *343:10 40.7654 
2 *343:10 *343:18 45.6024 
3 *343:18 *343:20 78.8816 
4 *343:20 *343:30 37.0794 
5 *343:30 *872:DIODE 23 
6 *343:30 *14887:weight_in[13] 36.6849 
*END

*D_NET *344 0.0830875
*CONN
*I *873:DIODE I *D sky130_fd_sc_hd__diode_2
*I *14887:weight_in[14] I *D processing_element
*I *14698:X O *D sky130_fd_sc_hd__clkbuf_4
*CAP
1 *873:DIODE 0
2 *14887:weight_in[14] 0.00081307
3 *14698:X 0.000408593
4 *344:18 0.00222137
5 *344:10 0.0177131
6 *344:8 0.0167134
7 *14887:weight_in[14] *14887:weight_in[15] 0
8 *14887:weight_in[14] *350:18 6.97747e-05
9 *14887:weight_in[14] *355:18 3.34756e-05
10 *344:10 *345:16 0.000501123
11 *344:10 *353:10 0
12 *344:10 *355:12 0
13 *344:10 *413:10 0.00417323
14 *344:10 *449:14 0.00115799
15 *344:10 *530:8 0
16 *641:DIODE *344:8 0.000187129
17 *14887:weight_in[13] *14887:weight_in[14] 0
18 *341:16 *344:10 0.0326249
19 *342:16 *344:10 0.00645629
20 *343:18 *344:10 0
21 *343:30 *14887:weight_in[14] 1.41966e-05
*RES
1 *14698:X *344:8 43.8621 
2 *344:8 *344:10 474.481 
3 *344:10 *344:18 31.4886 
4 *344:18 *14887:weight_in[14] 26.747 
5 *344:18 *873:DIODE 23 
*END

*D_NET *345 0.0940032
*CONN
*I *874:DIODE I *D sky130_fd_sc_hd__diode_2
*I *14887:weight_in[15] I *D processing_element
*I *14699:X O *D sky130_fd_sc_hd__clkbuf_4
*CAP
1 *874:DIODE 0
2 *14887:weight_in[15] 0.000827298
3 *14699:X 0
4 *345:24 0.00203811
5 *345:16 0.0107185
6 *345:14 0.0101397
7 *345:8 0.00267964
8 *345:6 0.00204762
9 *14887:weight_in[15] *350:18 7.53721e-05
10 *14887:weight_in[15] *355:18 3.9779e-05
11 *14887:valid_in *14887:weight_in[15] 1.70284e-05
12 *14887:weight_in[14] *14887:weight_in[15] 0
13 *205:13 *345:8 0
14 *335:10 *345:16 0.0255242
15 *340:16 *345:16 0.000921795
16 *341:12 *345:8 0.000114656
17 *341:16 *345:16 0.032195
18 *342:12 *345:8 1.34542e-05
19 *343:10 *345:8 3.79306e-05
20 *343:18 *345:8 0
21 *343:20 *345:16 0.00611195
22 *344:10 *345:16 0.000501123
*RES
1 *14699:X *345:6 38 
2 *345:6 *345:8 39.585 
3 *345:8 *345:14 37.7679 
4 *345:14 *345:16 435.041 
5 *345:16 *345:24 29.8314 
6 *345:24 *14887:weight_in[15] 26.8739 
7 *345:24 *874:DIODE 23 
*END

*D_NET *346 0.0690883
*CONN
*I *14885:act_in[7] I *D processing_element
*I *792:DIODE I *D sky130_fd_sc_hd__diode_2
*I *14700:X O *D sky130_fd_sc_hd__clkbuf_4
*CAP
1 *14885:act_in[7] 0.000762494
2 *792:DIODE 0
3 *14700:X 0.000125646
4 *346:22 0.00112389
5 *346:18 0.0157739
6 *346:16 0.0163109
7 *346:10 0.0010241
8 *14885:act_in[7] *14885:act_in[8] 0
9 *346:10 *530:8 0
10 *346:18 *347:18 0
11 *346:18 *348:10 0
12 *346:18 *351:18 0
13 *346:18 *353:18 0
14 *346:18 *412:22 0.00210443
15 *346:18 *451:14 0.00176521
16 *346:22 *357:14 0.000141083
17 *654:DIODE *346:10 3.22879e-05
18 *14885:act_in[6] *14885:act_in[7] 0
19 *14885:weight_in[11] *346:18 0.000475254
20 *14885:weight_in[12] *346:18 0.000922387
21 *14885:weight_in[2] *346:18 2.45371e-05
22 *14885:weight_in[3] *346:18 2.45371e-05
23 *301:12 *346:10 7.28526e-05
24 *302:10 *346:18 0.0284048
*RES
1 *14700:X *346:10 40.5271 
2 *346:10 *346:16 44.9143 
3 *346:16 *346:18 419.195 
4 *346:18 *346:22 19.9093 
5 *346:22 *792:DIODE 23 
6 *346:22 *14885:act_in[7] 34.9242 
*END

*D_NET *347 0.0670305
*CONN
*I *14887:weight_in[1] I *D processing_element
*I *875:DIODE I *D sky130_fd_sc_hd__diode_2
*I *14701:X O *D sky130_fd_sc_hd__clkbuf_4
*CAP
1 *14887:weight_in[1] 0.000836667
2 *875:DIODE 0
3 *14701:X 0.000116472
4 *347:26 0.00146433
5 *347:18 0.0152129
6 *347:16 0.0155376
7 *347:12 0.00147959
8 *347:8 0.000643768
9 *14887:weight_in[1] *14887:weight_in[2] 0
10 *347:12 *353:10 0.00201393
11 *347:12 *354:16 0.000326678
12 *347:12 *465:20 0.00201616
13 *347:18 *348:10 0.0271801
14 *644:DIODE *347:8 0.000138607
15 *14887:weight_in[0] *14887:weight_in[1] 0
16 *302:10 *347:18 0
17 *303:18 *347:18 0
18 *309:8 *347:16 6.3761e-05
19 *346:18 *347:18 0
*RES
1 *14701:X *347:8 39.5743 
2 *347:8 *347:12 41.5557 
3 *347:12 *347:16 25.6264 
4 *347:16 *347:18 392.784 
5 *347:18 *347:26 24.2386 
6 *347:26 *875:DIODE 23 
7 *347:26 *14887:weight_in[1] 36.6849 
*END

*D_NET *348 0.0871975
*CONN
*I *14887:weight_in[2] I *D processing_element
*I *876:DIODE I *D sky130_fd_sc_hd__diode_2
*I *14702:X O *D sky130_fd_sc_hd__clkbuf_4
*CAP
1 *14887:weight_in[2] 0.00085491
2 *876:DIODE 0
3 *14702:X 0.000932564
4 *348:24 0.00177392
5 *348:16 0.00148605
6 *348:10 0.00898692
7 *348:8 0.00935244
8 *14887:weight_in[2] *14887:weight_in[3] 0
9 *348:10 *368:22 0.0281314
10 *348:10 *412:22 0
11 *348:10 *465:28 0.000651985
12 *348:24 *14887:weight_in[4] 0.000185803
13 *348:24 *14887:weight_in[5] 2.24608e-05
14 *348:24 *350:18 0.000577336
15 *348:24 *350:22 0.000368276
16 *348:24 *351:18 0.000418912
17 *348:24 *520:10 0
18 *645:DIODE *348:8 0.000184689
19 *14887:weight_in[1] *14887:weight_in[2] 0
20 *301:20 *348:10 0.00482764
21 *303:18 *348:10 0
22 *339:18 *348:24 0.00126207
23 *346:18 *348:10 0
24 *347:18 *348:10 0.0271801
*RES
1 *14702:X *348:8 49.5793 
2 *348:8 *348:10 394.193 
3 *348:10 *348:16 38.2443 
4 *348:16 *348:24 47.2521 
5 *348:24 *876:DIODE 23 
6 *348:24 *14887:weight_in[2] 36.6849 
*END

*D_NET *349 0.0665092
*CONN
*I *14887:weight_in[3] I *D processing_element
*I *877:DIODE I *D sky130_fd_sc_hd__diode_2
*I *14703:X O *D sky130_fd_sc_hd__clkbuf_4
*CAP
1 *14887:weight_in[3] 0.000843277
2 *877:DIODE 0
3 *14703:X 0
4 *349:24 0.0021633
5 *349:16 0.0029515
6 *349:14 0.00185397
7 *349:8 0.0124241
8 *349:6 0.0122016
9 *14887:weight_in[3] *14887:weight_in[4] 0
10 *349:8 *351:12 6.88552e-05
11 *349:8 *352:10 0
12 *349:8 *353:10 0
13 *349:8 *354:16 0.00596004
14 *349:8 *412:10 2.45982e-05
15 *349:8 *412:18 0.000590111
16 *349:8 *446:8 0.0050795
17 *349:8 *457:8 0.00126131
18 *349:8 *465:10 0.0129121
19 *349:8 *465:20 0.000834812
20 *349:8 *498:8 0.00166097
21 *349:14 *454:14 0.000477634
22 *349:16 *354:24 0.000407201
23 *349:16 *530:8 0
24 *708:DIODE *349:14 0.000181125
25 *14887:weight_in[2] *14887:weight_in[3] 0
26 *304:10 *349:8 0.000375782
27 *304:14 *349:8 0.00168646
28 *310:10 *349:8 0.000804161
29 *312:10 *349:8 0.000597766
30 *335:10 *349:16 0.00114895
*RES
1 *14703:X *349:6 38 
2 *349:6 *349:8 382.572 
3 *349:8 *349:14 35.8621 
4 *349:14 *349:16 44.1629 
5 *349:16 *349:24 31.4886 
6 *349:24 *877:DIODE 23 
7 *349:24 *14887:weight_in[3] 36.6849 
*END

*D_NET *350 0.0859113
*CONN
*I *878:DIODE I *D sky130_fd_sc_hd__diode_2
*I *14887:weight_in[4] I *D processing_element
*I *14704:X O *D sky130_fd_sc_hd__clkbuf_4
*CAP
1 *878:DIODE 0
2 *14887:weight_in[4] 0.000798489
3 *14704:X 0.000424834
4 *350:22 0.000977337
5 *350:18 0.00301973
6 *350:16 0.00333934
7 *350:10 0.00772366
8 *350:8 0.00765004
9 *14887:weight_in[4] *520:10 0
10 *350:10 *368:22 0.0253049
11 *350:10 *465:28 0.000317504
12 *350:16 *450:14 0.000911526
13 *350:18 *14887:weight_in[5] 2.05503e-05
14 *350:18 *14887:weight_in[9] 8.77053e-05
15 *350:18 *351:18 0
16 *350:18 *355:18 0.00129335
17 *350:18 *454:18 0.000375332
18 *350:18 *476:12 0.00313206
19 *350:18 *520:10 0
20 *350:22 *520:10 0
21 *647:DIODE *350:8 0.000184402
22 *14887:weight_in[10] *350:18 4.75766e-05
23 *14887:weight_in[14] *350:18 6.97747e-05
24 *14887:weight_in[15] *350:18 7.53721e-05
25 *14887:weight_in[3] *14887:weight_in[4] 0
26 *301:20 *350:10 0.00459202
27 *313:18 *350:10 0.0231647
28 *340:14 *350:8 0.000741064
29 *340:16 *350:10 0
30 *342:26 *350:18 0.000264329
31 *343:30 *350:18 0.000264329
32 *348:24 *14887:weight_in[4] 0.000185803
33 *348:24 *350:18 0.000577336
34 *348:24 *350:22 0.000368276
*RES
1 *14704:X *350:8 48.6264 
2 *350:8 *350:10 343.836 
3 *350:10 *350:16 40.15 
4 *350:16 *350:18 86.2439 
5 *350:18 *350:22 5.52036 
6 *350:22 *14887:weight_in[4] 13.0286 
7 *350:22 *878:DIODE 38 
*END

*D_NET *351 0.0831501
*CONN
*I *879:DIODE I *D sky130_fd_sc_hd__diode_2
*I *14887:weight_in[5] I *D processing_element
*I *14705:X O *D sky130_fd_sc_hd__clkbuf_4
*CAP
1 *879:DIODE 0
2 *14887:weight_in[5] 0.000808589
3 *14705:X 9.86299e-05
4 *351:22 0.000964243
5 *351:18 0.00959798
6 *351:16 0.0105912
7 *351:12 0.00193587
8 *351:8 0.000885651
9 *14887:weight_in[5] *14887:weight_in[6] 1.70284e-05
10 *351:12 *352:10 0
11 *351:12 *353:10 0.00169181
12 *351:12 *354:16 0.000274695
13 *351:18 *14887:weight_in[9] 0.00026919
14 *351:18 *353:18 0.0236628
15 *351:18 *355:18 0.0297304
16 *648:DIODE *351:8 0.000143535
17 *324:22 *351:18 0.00166915
18 *339:18 *351:18 0.000278634
19 *340:8 *351:12 0
20 *346:18 *351:18 0
21 *348:24 *14887:weight_in[5] 2.24608e-05
22 *348:24 *351:18 0.000418912
23 *349:8 *351:12 6.88552e-05
24 *350:18 *14887:weight_in[5] 2.05503e-05
25 *350:18 *351:18 0
*RES
1 *14705:X *351:8 39.5743 
2 *351:8 *351:12 37.33 
3 *351:12 *351:16 32.2964 
4 *351:16 *351:18 414.617 
5 *351:18 *351:22 16.5743 
6 *351:22 *14887:weight_in[5] 26.1696 
7 *351:22 *879:DIODE 23 
*END

*D_NET *352 0.0735853
*CONN
*I *14887:weight_in[6] I *D processing_element
*I *880:DIODE I *D sky130_fd_sc_hd__diode_2
*I *14706:X O *D sky130_fd_sc_hd__clkbuf_4
*CAP
1 *14887:weight_in[6] 0.000835133
2 *880:DIODE 0
3 *14706:X 0.000103715
4 *352:18 0.00240259
5 *352:10 0.015569
6 *352:8 0.0141052
7 *14887:weight_in[6] *14887:weight_in[7] 0
8 *352:10 *354:16 0.00238903
9 *352:10 *357:10 0.0305391
10 *352:10 *390:10 0.000281368
11 *352:10 *390:12 0.00140156
12 *352:10 *412:10 0
13 *352:10 *446:8 0
14 *352:10 *454:10 0
15 *352:10 *457:8 0.000112322
16 *352:10 *487:10 0.001127
17 *352:10 *498:8 0.00110325
18 *352:10 *509:16 0.00143278
19 *649:DIODE *352:8 4.17736e-05
20 *14887:weight_in[5] *14887:weight_in[6] 1.70284e-05
21 *214:13 *352:8 9.84851e-05
22 *301:12 *352:10 0
23 *304:10 *352:10 0.000243579
24 *304:14 *352:10 0
25 *310:10 *352:10 0.000545025
26 *312:10 *352:10 0.000732225
27 *340:8 *352:10 0.000505085
28 *349:8 *352:10 0
29 *351:12 *352:10 0
*RES
1 *14706:X *352:8 39.5743 
2 *352:8 *352:10 441.38 
3 *352:10 *352:18 38.8836 
4 *352:18 *880:DIODE 23 
5 *352:18 *14887:weight_in[6] 36.6849 
*END

*D_NET *353 0.0727473
*CONN
*I *14887:weight_in[7] I *D processing_element
*I *881:DIODE I *D sky130_fd_sc_hd__diode_2
*I *14707:X O *D sky130_fd_sc_hd__clkbuf_4
*CAP
1 *14887:weight_in[7] 0.000849164
2 *881:DIODE 0
3 *14707:X 0.000151899
4 *353:22 0.00103217
5 *353:18 0.0113121
6 *353:16 0.0123302
7 *353:10 0.00590417
8 *353:8 0.00485494
9 *14887:weight_in[7] *14887:weight_in[8] 0
10 *353:10 *354:16 0.00148612
11 *353:10 *355:12 0.00051615
12 *353:10 *412:10 0.00373049
13 *353:10 *412:18 1.11421e-05
14 *353:10 *465:20 0.00010403
15 *353:10 *530:8 0.00298599
16 *650:DIODE *353:8 6.40928e-05
17 *14885:weight_in[2] *353:18 2.30499e-05
18 *14885:weight_in[3] *353:18 2.30499e-05
19 *14887:weight_in[6] *14887:weight_in[7] 0
20 *340:8 *353:10 0
21 *344:10 *353:10 0
22 *346:18 *353:18 0
23 *347:12 *353:10 0.00201393
24 *349:8 *353:10 0
25 *351:12 *353:10 0.00169181
26 *351:18 *353:18 0.0236628
*RES
1 *14707:X *353:8 40.0507 
2 *353:8 *353:10 135.016 
3 *353:10 *353:16 46.3436 
4 *353:16 *353:18 310.383 
5 *353:18 *353:22 17.0507 
6 *353:22 *881:DIODE 23 
7 *353:22 *14887:weight_in[7] 36.6849 
*END

*D_NET *354 0.0861586
*CONN
*I *14887:weight_in[8] I *D processing_element
*I *882:DIODE I *D sky130_fd_sc_hd__diode_2
*I *14708:X O *D sky130_fd_sc_hd__clkbuf_4
*CAP
1 *14887:weight_in[8] 0.000855133
2 *882:DIODE 0
3 *14708:X 0.000121188
4 *354:32 0.00232378
5 *354:24 0.00292367
6 *354:16 0.0161797
7 *354:14 0.0147247
8 *354:12 0.000121188
9 *14887:weight_in[8] *14887:weight_in[9] 0
10 *354:12 *355:12 3.89972e-05
11 *354:16 *355:12 0.000120147
12 *354:16 *412:10 0.00401657
13 *354:16 *412:18 0.000118028
14 *354:16 *424:10 0.000642962
15 *354:16 *453:12 0.000367539
16 *354:16 *465:10 0.00466764
17 *354:16 *465:20 0.000380246
18 *354:16 *509:16 0.0245095
19 *354:16 *530:8 0.00280486
20 *354:24 *530:8 0
21 *14887:weight_in[7] *14887:weight_in[8] 0
22 *310:10 *354:16 0.000226406
23 *335:10 *354:24 0
24 *340:8 *354:12 6.54744e-05
25 *340:8 *354:16 0.000107151
26 *341:16 *354:24 0
27 *342:16 *354:16 0
28 *347:12 *354:16 0.000326678
29 *349:8 *354:16 0.00596004
30 *349:16 *354:24 0.000407201
31 *351:12 *354:16 0.000274695
32 *352:10 *354:16 0.00238903
33 *353:10 *354:16 0.00148612
*RES
1 *14708:X *354:12 47.8286 
2 *354:12 *354:14 8 
3 *354:14 *354:16 76.3429 
4 *354:16 *354:24 41.0527 
5 *354:24 *354:32 32.9179 
6 *354:32 *882:DIODE 23 
7 *354:32 *14887:weight_in[8] 36.6849 
*END

*D_NET *355 0.0791042
*CONN
*I *883:DIODE I *D sky130_fd_sc_hd__diode_2
*I *14887:weight_in[9] I *D processing_element
*I *14709:X O *D sky130_fd_sc_hd__clkbuf_4
*CAP
1 *883:DIODE 5.45426e-05
2 *14887:weight_in[9] 0.000842081
3 *14709:X 9.63283e-05
4 *355:18 0.0106488
5 *355:16 0.0111504
6 *355:12 0.00266758
7 *355:8 0.00136563
8 *355:18 *357:22 0.000357939
9 *355:18 *435:12 0.0048609
10 *355:18 *452:12 0.00195494
11 *355:18 *476:12 0
12 *355:18 *476:14 0.00768473
13 *355:18 *476:22 0.00192773
14 *355:18 *487:20 0.000222091
15 *355:18 *498:24 0.000123586
16 *649:DIODE *355:16 1.39317e-05
17 *652:DIODE *355:8 0.000141954
18 *779:DIODE *355:18 0.000126882
19 *14885:weight_in[5] *355:18 0.00144247
20 *14887:weight_in[10] *14887:weight_in[9] 0
21 *14887:weight_in[10] *355:18 2.50227e-05
22 *14887:weight_in[14] *355:18 3.34756e-05
23 *14887:weight_in[15] *355:18 3.9779e-05
24 *14887:weight_in[8] *14887:weight_in[9] 0
25 *304:22 *355:18 0.000427428
26 *335:22 *355:18 0.000569189
27 *340:8 *355:12 0
28 *342:26 *355:18 0.000135436
29 *343:30 *355:18 0.000135436
30 *344:10 *355:12 0
31 *350:18 *14887:weight_in[9] 8.77053e-05
32 *350:18 *355:18 0.00129335
33 *351:18 *14887:weight_in[9] 0.00026919
34 *351:18 *355:18 0.0297304
35 *353:10 *355:12 0.00051615
36 *354:12 *355:12 3.89972e-05
37 *354:16 *355:12 0.000120147
*RES
1 *14709:X *355:8 39.5743 
2 *355:8 *355:12 41.5557 
3 *355:12 *355:16 32.7729 
4 *355:16 *355:18 425.534 
5 *355:18 *14887:weight_in[9] 14.2568 
6 *355:18 *883:DIODE 38.6214 
*END

*D_NET *356 0.0906998
*CONN
*I *898:DIODE I *D sky130_fd_sc_hd__diode_2
*I *14888:weight_in[0] I *D processing_element
*I *14710:X O *D sky130_fd_sc_hd__buf_4
*CAP
1 *898:DIODE 0.000530641
2 *14888:weight_in[0] 0.000315148
3 *14710:X 0.000122707
4 *356:18 0.00887623
5 *356:16 0.00803044
6 *356:14 0.0126755
7 *356:12 0.0126755
8 *356:10 0.00121006
9 *356:8 0.00133277
10 *14888:weight_in[0] *14888:load_weight 0
11 *356:10 *359:10 2.68708e-05
12 *356:10 *364:12 0.00286016
13 *356:10 *365:10 6.12641e-05
14 *356:10 *366:10 0.00304064
15 *356:10 *371:8 0
16 *356:14 *369:14 0.0214928
17 *356:18 *14888:weight_in[14] 0.000215048
18 *356:18 *359:18 0
19 *356:18 *362:16 0.0128678
20 *356:18 *363:20 0.0015872
21 *356:18 *364:24 0
22 *653:DIODE *356:8 0.000137651
23 *333:26 *356:18 0.00254309
24 *336:26 *356:18 9.83058e-05
*RES
1 *14710:X *356:8 40.0507 
2 *356:8 *356:10 48.0364 
3 *356:10 *356:12 15 
4 *356:12 *356:14 312.682 
5 *356:14 *356:16 15 
6 *356:16 *356:18 244.532 
7 *356:18 *14888:weight_in[0] 11.1806 
8 *356:18 *898:DIODE 48.6264 
*END

*D_NET *357 0.084579
*CONN
*I *14885:act_in[8] I *D processing_element
*I *793:DIODE I *D sky130_fd_sc_hd__diode_2
*I *14711:X O *D sky130_fd_sc_hd__clkbuf_4
*CAP
1 *14885:act_in[8] 0.000768463
2 *793:DIODE 0
3 *14711:X 0.000126711
4 *357:22 0.000930877
5 *357:14 0.0015665
6 *357:10 0.00921977
7 *357:8 0.0079424
8 *14885:act_in[8] *14885:act_in[9] 0
9 *357:10 *487:10 0.0268296
10 *357:10 *509:16 0.00322878
11 *357:22 *476:14 0.000355699
12 *665:DIODE *357:8 3.22465e-05
13 *14885:act_in[7] *14885:act_in[8] 0
14 *17:13 *357:8 8.1796e-05
15 *301:12 *357:10 0
16 *313:10 *357:10 0.00245807
17 *346:22 *357:14 0.000141083
18 *352:10 *357:10 0.0305391
19 *355:18 *357:22 0.000357939
*RES
1 *14711:X *357:8 40.0507 
2 *357:8 *357:10 410.744 
3 *357:10 *357:14 37.5371 
4 *357:14 *357:22 35.3443 
5 *357:22 *793:DIODE 23 
6 *357:22 *14885:act_in[8] 34.9242 
*END

*D_NET *358 0.106655
*CONN
*I *899:DIODE I *D sky130_fd_sc_hd__diode_2
*I *14888:weight_in[10] I *D processing_element
*I *14712:X O *D sky130_fd_sc_hd__clkbuf_8
*CAP
1 *899:DIODE 0.000146384
2 *14888:weight_in[10] 0.000763728
3 *14712:X 0
4 *358:18 0.00559178
5 *358:16 0.00468167
6 *358:14 0.00395977
7 *358:12 0.00395977
8 *358:10 0.00911783
9 *358:8 0.00911783
10 *358:6 0.00407051
11 *358:4 0.00407051
12 *14888:weight_in[10] *14888:weight_in[9] 0
13 *14888:weight_in[10] *373:18 0.000107267
14 *358:10 *369:10 0.00518856
15 *358:18 *360:16 0.0106739
16 *358:18 *367:18 0
17 *358:18 *373:18 0.000432544
18 *890:DIODE *358:18 0
19 *891:DIODE *358:18 0
20 *14888:act_in[15] *358:18 0.000123709
21 *35:13 *358:14 0.00466676
22 *274:19 *14888:weight_in[10] 6.8287e-05
23 *274:19 *358:18 0.000322882
24 *278:19 *358:18 0.00192849
25 *278:23 *358:18 0
26 *279:19 *358:18 0
27 *322:12 *358:14 0.000456819
28 *323:6 *358:14 0.0125122
29 *323:10 *358:18 6.33258e-05
30 *332:10 *358:10 0.00329599
31 *336:22 *358:14 0.0213345
*RES
1 *14712:X *358:4 23 
2 *358:4 *358:6 76.3736 
3 *358:6 *358:8 15 
4 *358:8 *358:10 253.336 
5 *358:10 *358:12 15 
6 *358:12 *358:14 244.553 
7 *358:14 *358:16 15 
8 *358:16 *358:18 151.566 
9 *358:18 *14888:weight_in[10] 13.1642 
10 *358:18 *899:DIODE 39.5743 
*END

*D_NET *359 0.130364
*CONN
*I *900:DIODE I *D sky130_fd_sc_hd__diode_2
*I *14888:weight_in[11] I *D processing_element
*I *14713:X O *D sky130_fd_sc_hd__clkbuf_8
*CAP
1 *900:DIODE 0
2 *14888:weight_in[11] 0.000287594
3 *14713:X 5.145e-05
4 *359:34 0.00070165
5 *359:18 0.00628956
6 *359:16 0.00530032
7 *359:14 0.0082805
8 *359:12 0.0082805
9 *359:10 0.00508216
10 *359:8 0.00513361
11 *14888:weight_in[11] *529:75 0.000364411
12 *359:10 *360:8 0.0171723
13 *359:10 *366:10 4.836e-05
14 *359:10 *372:10 0.0133174
15 *359:14 *367:14 0.0213685
16 *359:14 *371:12 0.000381763
17 *359:18 *364:20 0.0102209
18 *359:18 *364:24 0.00235155
19 *359:18 *529:75 0.00162621
20 *14888:act_in[14] *359:18 0.000116551
21 *325:16 *359:18 0.00208636
22 *332:14 *359:14 0.0212867
23 *336:26 *359:18 0.000588682
24 *356:10 *359:10 2.68708e-05
25 *356:18 *359:18 0
*RES
1 *14713:X *359:8 38.6214 
2 *359:8 *359:10 227.277 
3 *359:10 *359:12 15 
4 *359:12 *359:14 309.347 
5 *359:14 *359:16 15 
6 *359:16 *359:18 189.422 
7 *359:18 *14888:weight_in[11] 8.95573 
8 *359:18 *359:34 27.5321 
9 *359:34 *900:DIODE 23 
*END

*D_NET *360 0.13065
*CONN
*I *14888:weight_in[12] I *D processing_element
*I *901:DIODE I *D sky130_fd_sc_hd__diode_2
*I *14714:X O *D sky130_fd_sc_hd__clkbuf_8
*CAP
1 *14888:weight_in[12] 0.000930481
2 *901:DIODE 0.000105933
3 *14714:X 0
4 *360:18 0.00103641
5 *360:16 0.00368739
6 *360:14 0.00368739
7 *360:12 0.00890846
8 *360:10 0.00890846
9 *360:8 0.00717657
10 *360:6 0.00717657
11 *14888:weight_in[12] *364:24 0.000162089
12 *14888:weight_in[12] *529:75 0.000210019
13 *360:8 *366:10 0.00682485
14 *360:8 *370:8 0
15 *360:8 *371:8 0
16 *360:12 *364:16 0.0081242
17 *360:12 *365:14 4.5051e-05
18 *360:12 *372:14 0.0291228
19 *360:16 *373:18 0.0141688
20 *14888:act_in[11] *360:16 0.000112228
21 *14888:act_in[15] *360:16 0.000136201
22 *232:19 *360:8 0
23 *278:17 *14888:weight_in[12] 2.19639e-05
24 *323:10 *360:16 0.00129286
25 *326:14 *360:16 0.000965556
26 *358:18 *360:16 0.0106739
27 *359:10 *360:8 0.0171723
*RES
1 *14714:X *360:6 38 
2 *360:6 *360:8 241.363 
3 *360:8 *360:10 15 
4 *360:10 *360:12 321.258 
5 *360:12 *360:14 15 
6 *360:14 *360:16 186.076 
7 *360:16 *360:18 15 
8 *360:18 *901:DIODE 24.0979 
9 *360:18 *14888:weight_in[12] 38.5346 
*END

*D_NET *361 0.0948079
*CONN
*I *14888:weight_in[13] I *D processing_element
*I *902:DIODE I *D sky130_fd_sc_hd__diode_2
*I *14715:X O *D sky130_fd_sc_hd__clkbuf_8
*CAP
1 *14888:weight_in[13] 0.00112916
2 *902:DIODE 0
3 *14715:X 0
4 *361:14 0.00180007
5 *361:10 0.0191969
6 *361:8 0.018526
7 *361:6 0.0170698
8 *361:4 0.0170698
9 *14888:weight_in[13] *364:24 5.09072e-05
10 *14888:weight_in[13] *529:75 0.000364411
11 *361:6 *362:12 0
12 *361:10 *458:75 0.0167935
13 *361:10 *596:19 0
14 *14886:act_in[10] *361:10 0.00015837
15 *14886:act_in[11] *361:10 0.000208147
16 *243:19 *361:10 0
17 *249:21 *361:10 0.00244088
18 *275:19 *361:10 0
*RES
1 *14715:X *361:4 23 
2 *361:4 *361:6 330.31 
3 *361:6 *361:8 15 
4 *361:8 *361:10 438.563 
5 *361:10 *361:14 22.7679 
6 *361:14 *902:DIODE 23 
7 *361:14 *14888:weight_in[13] 38.8092 
*END

*D_NET *362 0.103916
*CONN
*I *903:DIODE I *D sky130_fd_sc_hd__diode_2
*I *14888:weight_in[14] I *D processing_element
*I *14716:X O *D sky130_fd_sc_hd__clkbuf_8
*CAP
1 *903:DIODE 0.000627548
2 *14888:weight_in[14] 0.000344682
3 *14716:X 0
4 *362:16 0.0150602
5 *362:14 0.0140879
6 *362:12 0.0156946
7 *362:10 0.0164445
8 *362:6 0.000749929
9 *362:10 *363:14 0.000754268
10 *362:12 *363:16 0.00509203
11 *362:16 *14886:valid_in 0
12 *362:16 *363:20 0.00784901
13 *851:DIODE *362:16 2.11066e-05
14 *852:DIODE *362:16 8.21456e-06
15 *857:DIODE *362:16 1.23172e-05
16 *14886:act_in[0] *362:16 0
17 *14886:act_in[1] *362:16 0
18 *14886:act_in[2] *362:16 0
19 *14886:act_in[3] *362:16 0
20 *14886:act_in[7] *362:16 0
21 *14886:act_in[8] *362:16 0
22 *14886:act_in[9] *362:16 0
23 *14886:weight_in[15] *362:16 0
24 *222:19 *362:10 0
25 *325:16 *362:16 0
26 *325:36 *362:16 0
27 *327:10 *362:16 0
28 *327:28 *362:16 1.09783e-05
29 *329:20 *362:16 0.00710788
30 *330:22 *362:16 0.000223171
31 *332:18 *362:16 0
32 *333:26 *362:16 0.000408504
33 *333:28 *362:16 0.0038348
34 *333:36 *362:16 2.13808e-05
35 *336:36 *362:16 0.0024803
36 *356:18 *14888:weight_in[14] 0.000215048
37 *356:18 *362:16 0.0128678
38 *361:6 *362:12 0
*RES
1 *14716:X *362:6 38 
2 *362:6 *362:10 34.5129 
3 *362:10 *362:12 312.206 
4 *362:12 *362:14 15 
5 *362:14 *362:16 430.464 
6 *362:16 *14888:weight_in[14] 11.6186 
7 *362:16 *903:DIODE 48.15 
*END

*D_NET *363 0.104888
*CONN
*I *14888:weight_in[15] I *D processing_element
*I *904:DIODE I *D sky130_fd_sc_hd__diode_2
*I *14717:X O *D sky130_fd_sc_hd__clkbuf_8
*CAP
1 *14888:weight_in[15] 0.000421915
2 *904:DIODE 0
3 *14717:X 0.000297164
4 *363:32 0.000611767
5 *363:22 0.00103368
6 *363:20 0.0223341
7 *363:18 0.0223341
8 *363:16 0.0164831
9 *363:14 0.0178766
10 *363:10 0.00169071
11 *14888:weight_in[15] *529:75 0.000227734
12 *363:10 *519:10 0
13 *363:14 *519:10 0
14 *363:20 *529:75 0
15 *363:32 *367:18 6.84987e-06
16 *14886:act_in[12] *363:20 0
17 *14886:act_in[15] *363:20 0
18 *14888:act_in[11] *363:20 0
19 *14888:act_in[12] *363:20 0
20 *14888:act_in[15] *363:20 0
21 *279:17 *363:32 0.000112231
22 *325:16 *363:20 0.000771145
23 *327:10 *363:20 0.000135444
24 *329:20 *363:20 0.00149011
25 *330:22 *363:20 0.00148553
26 *333:26 *363:20 0.0004931
27 *333:28 *363:20 0.000569112
28 *333:36 *363:20 0.000118027
29 *336:26 *363:20 0.000851402
30 *336:36 *363:20 0.000261164
31 *356:18 *363:20 0.0015872
32 *362:10 *363:14 0.000754268
33 *362:12 *363:16 0.00509203
34 *362:16 *363:20 0.00784901
*RES
1 *14717:X *363:10 43.9346 
2 *363:10 *363:14 40.2521 
3 *363:14 *363:16 56.2557 
4 *363:16 *363:18 8 
5 *363:18 *363:20 76.5968 
6 *363:20 *363:22 8 
7 *363:22 *363:32 30.2738 
8 *363:32 *904:DIODE 23 
9 *363:22 *14888:weight_in[15] 1.34213 
*END

*D_NET *364 0.0821988
*CONN
*I *905:DIODE I *D sky130_fd_sc_hd__diode_2
*I *14888:weight_in[1] I *D processing_element
*I *14718:X O *D sky130_fd_sc_hd__buf_4
*CAP
1 *905:DIODE 0
2 *14888:weight_in[1] 0.000215697
3 *14718:X 0.000102614
4 *364:42 0.000673163
5 *364:24 0.00500372
6 *364:22 0.00414208
7 *364:20 0.00365442
8 *364:18 0.0036272
9 *364:16 0.0137181
10 *364:14 0.0137181
11 *364:12 0.00106662
12 *364:10 0.00116923
13 *14888:weight_in[1] *529:75 0.000287215
14 *364:12 *365:10 0.00411816
15 *364:12 *366:10 0.000651515
16 *364:20 *529:75 0.000967776
17 *364:24 *14888:valid_in 7.87027e-05
18 *364:24 *14888:weight_in[2] 0.000162089
19 *364:24 *14888:weight_in[3] 0.000162089
20 *364:24 *14888:weight_in[6] 0.000106498
21 *364:24 *14888:weight_in[7] 0.000162089
22 *364:24 *14888:weight_in[8] 0.000162089
23 *364:24 *529:75 0.000789396
24 *661:DIODE *364:10 0.000139352
25 *14888:act_in[0] *364:24 7.87027e-05
26 *14888:act_in[1] *364:24 7.81901e-05
27 *14888:act_in[3] *364:24 7.87027e-05
28 *14888:act_in[4] *364:24 7.87027e-05
29 *14888:act_in[5] *364:20 4.04908e-05
30 *14888:act_in[8] *364:20 4.04908e-05
31 *14888:act_in[9] *364:20 4.04908e-05
32 *14888:weight_in[12] *364:24 0.000162089
33 *14888:weight_in[13] *364:24 5.09072e-05
34 *325:16 *364:20 0.000135143
35 *327:6 *364:16 0
36 *338:18 *364:20 0.00298018
37 *356:10 *364:12 0.00286016
38 *356:18 *364:24 0
39 *359:18 *364:20 0.0102209
40 *359:18 *364:24 0.00235155
41 *360:12 *364:16 0.0081242
*RES
1 *14718:X *364:10 40.0714 
2 *364:10 *364:12 54.0229 
3 *364:12 *364:14 15 
4 *364:14 *364:16 310.776 
5 *364:16 *364:18 15 
6 *364:18 *364:20 135.606 
7 *364:20 *364:22 0.621429 
8 *364:22 *364:24 114.881 
9 *364:24 *14888:weight_in[1] 9.19263 
10 *364:24 *364:42 28.485 
11 *364:42 *905:DIODE 23 
*END

*D_NET *365 0.119807
*CONN
*I *14888:weight_in[2] I *D processing_element
*I *906:DIODE I *D sky130_fd_sc_hd__diode_2
*I *14719:X O *D sky130_fd_sc_hd__buf_4
*CAP
1 *14888:weight_in[2] 0.000945104
2 *906:DIODE 0
3 *14719:X 5.41197e-05
4 *365:22 0.000983472
5 *365:18 0.00591446
6 *365:16 0.00587609
7 *365:14 0.00434347
8 *365:12 0.00434347
9 *365:10 0.00168751
10 *365:8 0.00174163
11 *14888:weight_in[2] *529:75 0.000210019
12 *365:10 *366:10 0.000459506
13 *365:10 *370:8 0.00228743
14 *365:14 *370:12 0.0295462
15 *365:14 *372:14 0.0292932
16 *365:18 *14888:weight_in[5] 1.27424e-05
17 *365:18 *369:18 0.0080057
18 *365:18 *370:16 0.0167499
19 *365:18 *372:18 1.47563e-05
20 *365:18 *373:18 0.000211575
21 *365:18 *596:19 0
22 *365:18 *596:27 0.000947341
23 *662:DIODE *365:8 9.67842e-05
24 *14888:act_in[12] *365:18 0.000118197
25 *14888:act_in[15] *365:18 0.00015852
26 *266:19 *365:18 0
27 *274:17 *14888:weight_in[2] 0.00030262
28 *274:17 *365:22 5.67058e-05
29 *274:19 *365:18 0
30 *328:10 *365:10 0.00106001
31 *356:10 *365:10 6.12641e-05
32 *360:12 *365:14 4.5051e-05
33 *364:12 *365:10 0.00411816
34 *364:24 *14888:weight_in[2] 0.000162089
*RES
1 *14719:X *365:8 39.0979 
2 *365:8 *365:10 73.0386 
3 *365:10 *365:12 15 
4 *365:12 *365:14 325.069 
5 *365:14 *365:16 15 
6 *365:16 *365:18 241.715 
7 *365:18 *365:22 15.6214 
8 *365:22 *906:DIODE 23 
9 *365:22 *14888:weight_in[2] 39.9639 
*END

*D_NET *366 0.132121
*CONN
*I *14888:weight_in[3] I *D processing_element
*I *907:DIODE I *D sky130_fd_sc_hd__diode_2
*I *14720:X O *D sky130_fd_sc_hd__buf_4
*CAP
1 *14888:weight_in[3] 0.00101194
2 *907:DIODE 0
3 *14720:X 0.000122063
4 *366:22 0.00170389
5 *366:18 0.00543742
6 *366:16 0.00474547
7 *366:14 0.00454846
8 *366:12 0.00454846
9 *366:10 0.00209547
10 *366:8 0.00221753
11 *14888:weight_in[3] *529:75 0.000210019
12 *366:10 *370:8 0
13 *366:14 *370:12 0.0294602
14 *366:14 *371:12 0.0301451
15 *366:14 *372:14 1.21972e-05
16 *366:18 *371:16 0.0162319
17 *366:18 *458:75 0.0179754
18 *663:DIODE *366:8 0.000141954
19 *14888:act_in[10] *366:18 0.000326792
20 *356:10 *366:10 0.00304064
21 *359:10 *366:10 4.836e-05
22 *360:8 *366:10 0.00682485
23 *364:12 *366:10 0.000651515
24 *364:24 *14888:weight_in[3] 0.000162089
25 *365:10 *366:10 0.000459506
*RES
1 *14720:X *366:8 40.5271 
2 *366:8 *366:10 90.6457 
3 *366:10 *366:12 15 
4 *366:12 *366:14 331.739 
5 *366:14 *366:16 15 
6 *366:16 *366:18 235.376 
7 *366:18 *366:22 23.7207 
8 *366:22 *907:DIODE 23 
9 *366:22 *14888:weight_in[3] 39.9639 
*END

*D_NET *367 0.0868107
*CONN
*I *908:DIODE I *D sky130_fd_sc_hd__diode_2
*I *14888:weight_in[4] I *D processing_element
*I *14721:X O *D sky130_fd_sc_hd__buf_4
*CAP
1 *908:DIODE 0.000304354
2 *14888:weight_in[4] 0.00075604
3 *14721:X 0
4 *367:18 0.0105714
5 *367:16 0.009511
6 *367:14 0.00771967
7 *367:12 0.00771967
8 *367:10 0.0031089
9 *367:8 0.0031089
10 *367:6 0.00419137
11 *367:4 0.00419137
12 *367:10 *369:10 0.00858151
13 *367:14 *371:12 3.6485e-05
14 *664:DIODE *367:6 0.000141954
15 *891:DIODE *367:18 6.61924e-05
16 *274:19 *14888:weight_in[4] 0
17 *274:19 *367:18 0
18 *279:19 *367:18 0.0019911
19 *321:18 *367:18 0.00314196
20 *322:16 *367:18 0
21 *323:10 *367:18 0
22 *329:20 *367:18 0
23 *330:22 *367:18 0
24 *332:14 *367:14 0.000293458
25 *358:18 *367:18 0
26 *359:14 *367:14 0.0213685
27 *363:32 *367:18 6.84987e-06
*RES
1 *14721:X *367:4 23 
2 *367:4 *367:6 77.8029 
3 *367:6 *367:8 15 
4 *367:8 *367:10 109.309 
5 *367:10 *367:12 15 
6 *367:12 *367:14 242.647 
7 *367:14 *367:16 15 
8 *367:16 *367:18 227.981 
9 *367:18 *14888:weight_in[4] 13.8448 
10 *367:18 *908:DIODE 42.9093 
*END

*D_NET *368 0.086219
*CONN
*I *14885:act_in[9] I *D processing_element
*I *794:DIODE I *D sky130_fd_sc_hd__diode_2
*I *14722:X O *D sky130_fd_sc_hd__clkbuf_4
*CAP
1 *14885:act_in[9] 0.000767796
2 *794:DIODE 0
3 *14722:X 0.000550421
4 *368:26 0.00154543
5 *368:22 0.00869257
6 *368:20 0.00791494
7 *368:18 0.00134104
8 *368:12 0.00189146
9 *14885:act_in[9] *14885:act_in[10] 0
10 *368:12 *509:16 0.000117344
11 *368:12 *530:8 0
12 *368:18 *412:10 0.0017977
13 *368:18 *509:16 0.000166756
14 *368:18 *530:8 0.00193107
15 *368:22 *448:14 0.000167448
16 *368:22 *465:28 0.000326131
17 *671:DIODE *368:12 1.73399e-05
18 *14885:act_in[8] *14885:act_in[9] 0
19 *301:12 *368:12 0.000374281
20 *301:12 *368:18 0
21 *301:20 *368:22 0.00518095
22 *303:18 *368:22 0
23 *339:10 *368:22 0
24 *348:10 *368:22 0.0281314
25 *350:10 *368:22 0.0253049
*RES
1 *14722:X *368:12 49.8796 
2 *368:12 *368:18 49.6654 
3 *368:18 *368:20 15 
4 *368:20 *368:22 377.642 
5 *368:22 *368:26 24.1971 
6 *368:26 *794:DIODE 23 
7 *368:26 *14885:act_in[9] 34.9242 
*END

*D_NET *369 0.103653
*CONN
*I *909:DIODE I *D sky130_fd_sc_hd__diode_2
*I *14888:weight_in[5] I *D processing_element
*I *14723:X O *D sky130_fd_sc_hd__buf_4
*CAP
1 *909:DIODE 0
2 *14888:weight_in[5] 0.00080883
3 *14723:X 0
4 *369:18 0.00595138
5 *369:16 0.00514255
6 *369:14 0.00930228
7 *369:12 0.00930228
8 *369:10 0.00228113
9 *369:8 0.00228113
10 *369:6 0.00418996
11 *369:4 0.00418996
12 *369:18 *14888:weight_in[9] 0.000266959
13 *369:18 *373:18 0.0147454
14 *369:18 *596:27 0.000945101
15 *666:DIODE *369:6 0.000141954
16 *14888:act_in[12] *369:18 0.000127194
17 *14888:act_in[15] *369:18 0.000173453
18 *274:19 *369:18 0
19 *332:10 *369:10 0.000522472
20 *356:14 *369:14 0.0214928
21 *358:10 *369:10 0.00518856
22 *365:18 *14888:weight_in[5] 1.27424e-05
23 *365:18 *369:18 0.0080057
24 *367:10 *369:10 0.00858151
*RES
1 *14723:X *369:4 23 
2 *369:4 *369:6 78.2793 
3 *369:6 *369:8 15 
4 *369:8 *369:10 132.199 
5 *369:10 *369:12 15 
6 *369:12 *369:14 246.935 
7 *369:14 *369:16 15 
8 *369:16 *369:18 218.121 
9 *369:18 *14888:weight_in[5] 11.0837 
10 *369:18 *909:DIODE 38 
*END

*D_NET *370 0.133717
*CONN
*I *14888:weight_in[6] I *D processing_element
*I *910:DIODE I *D sky130_fd_sc_hd__diode_2
*I *14724:X O *D sky130_fd_sc_hd__buf_4
*CAP
1 *14888:weight_in[6] 0.000964143
2 *910:DIODE 0
3 *14724:X 0
4 *370:20 0.00104136
5 *370:16 0.00438319
6 *370:14 0.00430597
7 *370:12 0.00435141
8 *370:10 0.00435141
9 *370:8 0.00396053
10 *370:6 0.00396053
11 *14888:weight_in[6] *529:75 0.000210019
12 *370:8 *371:8 0.0107624
13 *370:12 *371:12 0.000119313
14 *370:12 *372:14 2.02872e-05
15 *370:16 *372:18 0.0158386
16 *14888:act_in[12] *370:16 0.000101545
17 *14888:act_in[15] *370:16 0.000136188
18 *266:19 *370:16 0
19 *328:10 *370:8 0.00106001
20 *360:8 *370:8 0
21 *364:24 *14888:weight_in[6] 0.000106498
22 *365:10 *370:8 0.00228743
23 *365:14 *370:12 0.0295462
24 *365:18 *370:16 0.0167499
25 *366:10 *370:8 0
26 *366:14 *370:12 0.0294602
*RES
1 *14724:X *370:6 38 
2 *370:6 *370:8 141.002 
3 *370:8 *370:10 15 
4 *370:10 *370:12 326.499 
5 *370:12 *370:14 15 
6 *370:14 *370:16 219.53 
7 *370:16 *370:20 16.0979 
8 *370:20 *910:DIODE 23 
9 *370:20 *14888:weight_in[6] 39.2596 
*END

*D_NET *371 0.120278
*CONN
*I *14888:weight_in[7] I *D processing_element
*I *911:DIODE I *D sky130_fd_sc_hd__diode_2
*I *14725:X O *D sky130_fd_sc_hd__buf_4
*CAP
1 *14888:weight_in[7] 0.00102856
2 *911:DIODE 0
3 *14725:X 0
4 *371:20 0.00180617
5 *371:16 0.00769352
6 *371:14 0.0069159
7 *371:12 0.00900226
8 *371:10 0.00900226
9 *371:8 0.00584605
10 *371:6 0.00584605
11 *14888:weight_in[7] *529:75 0.000210019
12 *14888:act_in[10] *371:16 0.00029682
13 *229:13 *371:8 0
14 *277:19 *371:16 0
15 *281:19 *371:16 0.00249799
16 *332:14 *371:12 0.0122935
17 *356:10 *371:8 0
18 *359:14 *371:12 0.000381763
19 *360:8 *371:8 0
20 *364:24 *14888:weight_in[7] 0.000162089
21 *366:14 *371:12 0.0301451
22 *366:18 *371:16 0.0162319
23 *367:14 *371:12 3.6485e-05
24 *370:8 *371:8 0.0107624
25 *370:12 *371:12 0.000119313
*RES
1 *14725:X *371:6 38 
2 *371:6 *371:8 158.609 
3 *371:8 *371:10 15 
4 *371:10 *371:12 335.074 
5 *371:12 *371:14 15 
6 *371:14 *371:16 212.487 
7 *371:16 *371:20 24.1971 
8 *371:20 *911:DIODE 23 
9 *371:20 *14888:weight_in[7] 39.9639 
*END

*D_NET *372 0.126915
*CONN
*I *14888:weight_in[8] I *D processing_element
*I *912:DIODE I *D sky130_fd_sc_hd__diode_2
*I *14726:X O *D sky130_fd_sc_hd__clkbuf_8
*CAP
1 *14888:weight_in[8] 0.00103397
2 *912:DIODE 0
3 *14726:X 9.0895e-05
4 *372:22 0.00117983
5 *372:18 0.0067951
6 *372:16 0.00664925
7 *372:14 0.00433833
8 *372:12 0.00433833
9 *372:10 0.00603571
10 *372:8 0.0061266
11 *14888:weight_in[8] *529:75 0.000210019
12 *372:18 *373:18 0
13 *14888:act_in[15] *372:18 0.000247395
14 *266:19 *372:18 6.36037e-05
15 *273:19 *372:18 0.00202491
16 *275:19 *372:18 0
17 *359:10 *372:10 0.0133174
18 *360:12 *372:14 0.0291228
19 *364:24 *14888:weight_in[8] 0.000162089
20 *365:14 *372:14 0.0292932
21 *365:18 *372:18 1.47563e-05
22 *366:14 *372:14 1.21972e-05
23 *370:12 *372:14 2.02872e-05
24 *370:16 *372:18 0.0158386
*RES
1 *14726:X *372:8 39.0979 
2 *372:8 *372:10 174.104 
3 *372:10 *372:12 15 
4 *372:12 *372:14 323.164 
5 *372:14 *372:16 15 
6 *372:16 *372:18 208.261 
7 *372:18 *372:22 16.5743 
8 *372:22 *912:DIODE 23 
9 *372:22 *14888:weight_in[8] 39.9639 
*END

*D_NET *373 0.0936571
*CONN
*I *913:DIODE I *D sky130_fd_sc_hd__diode_2
*I *14888:weight_in[9] I *D processing_element
*I *14727:X O *D sky130_fd_sc_hd__clkbuf_8
*CAP
1 *913:DIODE 6.27375e-05
2 *14888:weight_in[9] 0.000804871
3 *14727:X 0
4 *373:18 0.00513338
5 *373:16 0.00426577
6 *373:14 0.00824291
7 *373:12 0.00824291
8 *373:10 0.00815259
9 *373:8 0.00815259
10 *373:6 0.00375686
11 *373:4 0.00375686
12 *14888:act_in[11] *373:18 0.000112228
13 *14888:act_in[12] *373:18 0.000118182
14 *14888:act_in[15] *373:18 0.000158535
15 *14888:weight_in[10] *14888:weight_in[9] 0
16 *14888:weight_in[10] *373:18 0.000107267
17 *274:19 *14888:weight_in[9] 0
18 *274:19 *373:18 0
19 *326:14 *373:18 0.000180264
20 *327:6 *373:14 0.0125839
21 *328:12 *373:14 0
22 *358:18 *373:18 0.000432544
23 *360:16 *373:18 0.0141688
24 *365:18 *373:18 0.000211575
25 *369:18 *14888:weight_in[9] 0.000266959
26 *369:18 *373:18 0.0147454
27 *372:18 *373:18 0
*RES
1 *14727:X *373:4 23 
2 *373:4 *373:6 69.2271 
3 *373:6 *373:8 15 
4 *373:8 *373:10 185.724 
5 *373:10 *373:12 15 
6 *373:12 *373:14 252.652 
7 *373:14 *373:16 15 
8 *373:16 *373:18 207.909 
9 *373:18 *14888:weight_in[9] 13.9133 
10 *373:18 *913:DIODE 38.6214 
*END

*D_NET *374 0.00764936
*CONN
*I *14819:A I *D sky130_fd_sc_hd__clkbuf_4
*I *14887:psum_out[0] O *D processing_element
*CAP
1 *14819:A 0
2 *14887:psum_out[0] 0.00156012
3 *374:15 0.00225759
4 *374:13 0.00381771
5 *166:23 *374:15 1.39431e-05
*RES
1 *14887:psum_out[0] *374:13 47.7493 
2 *374:13 *374:15 37.7829 
3 *374:15 *14819:A 23 
*END

*D_NET *375 0.00549576
*CONN
*I *14820:A I *D sky130_fd_sc_hd__clkbuf_4
*I *14887:psum_out[10] O *D processing_element
*CAP
1 *14820:A 0.000674359
2 *14887:psum_out[10] 0.00169536
3 *375:9 0.00236972
4 *14820:A *14821:A 0.000140988
5 *14820:A *407:19 5.67058e-05
6 *14820:A *408:11 0.000419265
7 *71:8 *14820:A 0.000139357
*RES
1 *14887:psum_out[10] *375:9 49.9036 
2 *375:9 *14820:A 39.9857 
*END

*D_NET *376 0.00521505
*CONN
*I *14821:A I *D sky130_fd_sc_hd__clkbuf_4
*I *14887:psum_out[11] O *D processing_element
*CAP
1 *14821:A 0.00087655
2 *14887:psum_out[11] 0.00161366
3 *376:7 0.00249021
4 *14821:A *14822:A 9.36522e-05
5 *14820:A *14821:A 0.000140988
*RES
1 *14887:psum_out[11] *376:7 48.35 
2 *376:7 *14821:A 36.2571 
*END

*D_NET *377 0.00442528
*CONN
*I *14822:A I *D sky130_fd_sc_hd__clkbuf_4
*I *14887:psum_out[12] O *D processing_element
*CAP
1 *14822:A 0.000478406
2 *14887:psum_out[12] 0.0016599
3 *377:7 0.00213831
4 *377:7 *378:11 0
5 *14821:A *14822:A 9.36522e-05
6 *73:8 *14822:A 5.50106e-05
*RES
1 *14887:psum_out[12] *377:7 49.4064 
2 *377:7 *14822:A 32.6736 
*END

*D_NET *378 0.00395187
*CONN
*I *14823:A I *D sky130_fd_sc_hd__clkbuf_4
*I *14887:psum_out[13] O *D processing_element
*CAP
1 *14823:A 0.000140686
2 *14887:psum_out[13] 0.00183525
3 *378:11 0.00197593
4 *377:7 *378:11 0
*RES
1 *14887:psum_out[13] *378:11 38.6529 
2 *378:11 *14823:A 40.5271 
*END

*D_NET *379 0.0055399
*CONN
*I *14887:act_in[0] I *D processing_element
*I *14728:X O *D sky130_fd_sc_hd__buf_1
*CAP
1 *14887:act_in[0] 0.000767757
2 *14728:X 0.00163515
3 *379:10 0.00240291
4 *14887:act_in[0] *454:18 8.53055e-05
5 *14887:act_in[0] *520:10 0.000299157
6 *379:10 *448:14 0.000275283
7 *672:DIODE *379:10 7.43308e-05
*RES
1 *14728:X *379:10 48.665 
2 *379:10 *14887:act_in[0] 29.4297 
*END

*D_NET *380 0.00364791
*CONN
*I *14824:A I *D sky130_fd_sc_hd__clkbuf_4
*I *14887:psum_out[14] O *D processing_element
*CAP
1 *14824:A 8.93929e-05
2 *14887:psum_out[14] 0.00173456
3 *380:11 0.00182396
*RES
1 *14887:psum_out[14] *380:11 36.2707 
2 *380:11 *14824:A 39.5743 
*END

*D_NET *381 0.00336003
*CONN
*I *14825:A I *D sky130_fd_sc_hd__clkbuf_4
*I *14887:psum_out[15] O *D processing_element
*CAP
1 *14825:A 0
2 *14887:psum_out[15] 0.00168002
3 *381:7 0.00168002
*RES
1 *14887:psum_out[15] *381:7 35.0279 
2 *381:7 *14825:A 38 
*END

*D_NET *382 0.00369394
*CONN
*I *14826:A I *D sky130_fd_sc_hd__clkbuf_4
*I *14887:psum_out[16] O *D processing_element
*CAP
1 *14826:A 0
2 *14887:psum_out[16] 0.00184697
3 *382:7 0.00184697
*RES
1 *14887:psum_out[16] *382:7 38.8393 
2 *382:7 *14826:A 38 
*END

*D_NET *383 0.00387433
*CONN
*I *14827:A I *D sky130_fd_sc_hd__clkbuf_4
*I *14887:psum_out[17] O *D processing_element
*CAP
1 *14827:A 0
2 *14887:psum_out[17] 0.00173375
3 *383:7 0.00173375
4 *383:7 *384:9 0.000406818
*RES
1 *14887:psum_out[17] *383:7 40.2686 
2 *383:7 *14827:A 38 
*END

*D_NET *384 0.00451121
*CONN
*I *14828:A I *D sky130_fd_sc_hd__clkbuf_4
*I *14887:psum_out[18] O *D processing_element
*CAP
1 *14828:A 0.000168234
2 *14887:psum_out[18] 0.000803968
3 *384:13 0.00122121
4 *384:9 0.00185695
5 *299:8 *384:9 5.40241e-05
6 *383:7 *384:9 0.000406818
*RES
1 *14887:psum_out[18] *384:9 35.6729 
2 *384:9 *384:13 35.2171 
3 *384:13 *14828:A 41.0036 
*END

*D_NET *385 0.00502476
*CONN
*I *14829:A I *D sky130_fd_sc_hd__clkbuf_4
*I *14887:psum_out[19] O *D processing_element
*CAP
1 *14829:A 0
2 *14887:psum_out[19] 0.000789734
3 *385:17 0.00140802
4 *385:11 0.00219776
5 *385:11 *387:11 0.000185428
6 *79:8 *385:17 5.41385e-05
7 *298:40 *385:17 0
8 *299:20 *385:11 0.000389685
*RES
1 *14887:psum_out[19] *385:11 49.3057 
2 *385:11 *385:17 42.9229 
3 *385:17 *14829:A 23 
*END

*D_NET *386 0.0113133
*CONN
*I *14830:A I *D sky130_fd_sc_hd__clkbuf_4
*I *14887:psum_out[1] O *D processing_element
*CAP
1 *14830:A 0
2 *14887:psum_out[1] 0.00178835
3 *386:21 0.00268957
4 *386:17 0.00289359
5 *386:11 0.00199236
6 *386:17 *14846:A 0.000272377
7 *386:17 *402:17 5.29672e-05
8 *386:21 *14845:A 0.000752298
9 *386:21 *398:19 0.000256467
10 *386:21 *402:17 0.000304579
11 *91:8 *386:21 0.000228909
12 *96:10 *386:11 0
13 *166:15 *386:21 8.1796e-05
*RES
1 *14887:psum_out[1] *386:11 36.6229 
2 *386:11 *386:17 19.93 
3 *386:17 *386:21 41.1386 
4 *386:21 *14830:A 23 
*END

*D_NET *387 0.00544041
*CONN
*I *14831:A I *D sky130_fd_sc_hd__clkbuf_4
*I *14887:psum_out[20] O *D processing_element
*CAP
1 *14831:A 0
2 *14887:psum_out[20] 0.000748962
3 *387:17 0.00165869
4 *387:11 0.00240766
5 *387:11 *388:9 9.67842e-05
6 *387:17 *388:9 1.58805e-05
7 *81:8 *387:17 5.41385e-05
8 *298:40 *387:11 0.000272864
9 *385:11 *387:11 0.000185428
*RES
1 *14887:psum_out[20] *387:11 48.0007 
2 *387:11 *387:17 47.5629 
3 *387:17 *14831:A 23 
*END

*D_NET *388 0.00618507
*CONN
*I *14832:A I *D sky130_fd_sc_hd__clkbuf_4
*I *14887:psum_out[21] O *D processing_element
*CAP
1 *14832:A 0.000531585
2 *14887:psum_out[21] 0.000925505
3 *388:13 0.00176218
4 *388:9 0.0021561
5 *14832:A *14833:A 0.000315857
6 *388:9 *389:9 0.000359326
7 *82:8 *14832:A 2.18506e-05
8 *387:11 *388:9 9.67842e-05
9 *387:17 *388:9 1.58805e-05
*RES
1 *14887:psum_out[21] *388:9 36.2114 
2 *388:9 *388:13 39.4429 
3 *388:13 *14832:A 49.1029 
*END

*D_NET *389 0.00687251
*CONN
*I *14833:A I *D sky130_fd_sc_hd__clkbuf_4
*I *14887:psum_out[22] O *D processing_element
*CAP
1 *14833:A 0.000399021
2 *14887:psum_out[22] 0.000872367
3 *389:13 0.00168069
4 *389:9 0.00215403
5 *14833:A *391:17 0.000230604
6 *389:9 *391:9 0.000401106
7 *389:13 *392:7 0
8 *14832:A *14833:A 0.000315857
9 *82:8 *14833:A 0.000361027
10 *83:8 *14833:A 9.84851e-05
11 *388:9 *389:9 0.000359326
*RES
1 *14887:psum_out[22] *389:9 36.3357 
2 *389:9 *389:13 40.1471 
3 *389:13 *14833:A 49.1029 
*END

*D_NET *390 0.0132741
*CONN
*I *14887:act_in[10] I *D processing_element
*I *14729:X O *D sky130_fd_sc_hd__buf_1
*CAP
1 *14887:act_in[10] 0.000656045
2 *14729:X 0.000287437
3 *390:16 0.00250374
4 *390:12 0.00263669
5 *390:10 0.00107643
6 *14887:act_in[10] *14887:act_in[11] 0
7 *14887:act_in[10] *14887:act_in[9] 0
8 *14887:act_in[10] *498:16 7.00034e-05
9 *14887:act_in[10] *520:10 0.000131661
10 *390:10 *446:8 0.000830806
11 *390:10 *509:16 0.000178742
12 *390:12 *446:8 1.60583e-05
13 *390:12 *457:8 0.00269725
14 *390:12 *509:16 0.000506303
15 *390:16 *401:18 0
16 *352:10 *390:10 0.000281368
17 *352:10 *390:12 0.00140156
*RES
1 *14729:X *390:10 49.5068 
2 *390:10 *390:12 35.8875 
3 *390:12 *390:16 39.4429 
4 *390:16 *14887:act_in[10] 27.063 
*END

*D_NET *391 0.00653331
*CONN
*I *14834:A I *D sky130_fd_sc_hd__clkbuf_4
*I *14887:psum_out[23] O *D processing_element
*CAP
1 *14834:A 0
2 *14887:psum_out[23] 0.00101796
3 *391:17 0.000622493
4 *391:13 0.00186317
5 *391:9 0.00225864
6 *391:9 *392:11 6.04475e-05
7 *14833:A *391:17 0.000230604
8 *83:8 *391:17 2.4754e-05
9 *84:8 *391:17 5.41385e-05
10 *389:9 *391:9 0.000401106
*RES
1 *14887:psum_out[23] *391:9 38.1171 
2 *391:9 *391:13 39.4429 
3 *391:13 *391:17 28.0086 
4 *391:17 *14834:A 23 
*END

*D_NET *392 0.00659569
*CONN
*I *14835:A I *D sky130_fd_sc_hd__clkbuf_4
*I *14887:psum_out[24] O *D processing_element
*CAP
1 *14835:A 0
2 *14887:psum_out[24] 0.00054848
3 *392:17 0.00122193
4 *392:11 0.00255756
5 *392:7 0.00188411
6 *392:11 *393:11 0
7 *392:11 *394:11 7.72119e-05
8 *392:11 *395:11 0.000173459
9 *392:17 *396:7 1.83564e-05
10 *85:8 *392:17 5.41385e-05
11 *389:13 *392:7 0
12 *391:9 *392:11 6.04475e-05
*RES
1 *14887:psum_out[24] *392:7 26.8693 
2 *392:7 *392:11 42.7779 
3 *392:11 *392:17 39.2564 
4 *392:17 *14835:A 23 
*END

*D_NET *393 0.00800033
*CONN
*I *14836:A I *D sky130_fd_sc_hd__clkbuf_4
*I *14887:psum_out[25] O *D processing_element
*CAP
1 *14836:A 0
2 *14887:psum_out[25] 0.000445819
3 *393:17 0.00153307
4 *393:11 0.00252294
5 *393:7 0.00143569
6 *393:11 *394:11 0.00187403
7 *393:17 *397:7 8.51225e-05
8 *86:8 *393:17 0.000103647
9 *392:11 *393:11 0
*RES
1 *14887:psum_out[25] *393:7 24.7564 
2 *393:7 *393:11 42.7779 
3 *393:11 *393:17 45.6571 
4 *393:17 *14836:A 23 
*END

*D_NET *394 0.00982459
*CONN
*I *14837:A I *D sky130_fd_sc_hd__clkbuf_4
*I *14887:psum_out[26] O *D processing_element
*CAP
1 *14837:A 0
2 *14887:psum_out[26] 0.000471354
3 *394:17 0.00105527
4 *394:11 0.00186591
5 *394:7 0.001282
6 *394:11 *395:11 0.00252095
7 *394:17 *395:17 0.00056461
8 *394:17 *400:7 5.91176e-05
9 *87:8 *394:17 5.41385e-05
10 *392:11 *394:11 7.72119e-05
11 *393:11 *394:11 0.00187403
*RES
1 *14887:psum_out[26] *394:7 25.1086 
2 *394:7 *394:11 49.9243 
3 *394:11 *394:17 40.5407 
4 *394:17 *14837:A 23 
*END

*D_NET *395 0.00930728
*CONN
*I *14838:A I *D sky130_fd_sc_hd__clkbuf_4
*I *14887:psum_out[27] O *D processing_element
*CAP
1 *14838:A 0
2 *14887:psum_out[27] 0.000496889
3 *395:17 0.00152528
4 *395:11 0.00221399
5 *395:7 0.0011856
6 *395:11 *396:9 7.35564e-05
7 *395:11 *397:9 0.000384992
8 *395:11 *400:9 1.59094e-05
9 *395:17 *400:7 9.03784e-05
10 *87:8 *395:17 7.53384e-06
11 *88:8 *395:17 5.41385e-05
12 *392:11 *395:11 0.000173459
13 *394:11 *395:11 0.00252095
14 *394:17 *395:17 0.00056461
*RES
1 *14887:psum_out[27] *395:7 25.4607 
2 *395:7 *395:11 44.2071 
3 *395:11 *395:17 49.2407 
4 *395:17 *14838:A 23 
*END

*D_NET *396 0.0113793
*CONN
*I *14839:A I *D sky130_fd_sc_hd__clkbuf_4
*I *14887:psum_out[28] O *D processing_element
*CAP
1 *14839:A 2.54164e-05
2 *14887:psum_out[28] 0.000577727
3 *396:13 0.0011736
4 *396:9 0.00217267
5 *396:7 0.00160222
6 *396:9 *397:9 0.00317736
7 *396:9 *399:9 0.00252615
8 *89:8 *14839:A 3.22879e-05
9 *392:17 *396:7 1.83564e-05
10 *395:11 *396:9 7.35564e-05
*RES
1 *14887:psum_out[28] *396:7 27.2214 
2 *396:7 *396:9 42.0707 
3 *396:9 *396:13 37.33 
4 *396:13 *14839:A 38.6214 
*END

*D_NET *397 0.0115296
*CONN
*I *14840:A I *D sky130_fd_sc_hd__clkbuf_4
*I *14887:psum_out[29] O *D processing_element
*CAP
1 *14840:A 0.000305661
2 *14887:psum_out[29] 0.000529105
3 *397:13 0.00146924
4 *397:9 0.00176706
5 *397:7 0.00113258
6 *397:9 *399:9 0.000267837
7 *397:9 *400:9 0.00235655
8 *90:8 *14840:A 5.41385e-05
9 *393:17 *397:7 8.51225e-05
10 *395:11 *397:9 0.000384992
11 *396:9 *397:9 0.00317736
*RES
1 *14887:psum_out[29] *397:7 26.8693 
2 *397:7 *397:9 40.165 
3 *397:9 *397:13 37.6821 
4 *397:13 *14840:A 43.8621 
*END

*D_NET *398 0.0111108
*CONN
*I *14841:A I *D sky130_fd_sc_hd__clkbuf_4
*I *14887:psum_out[2] O *D processing_element
*CAP
1 *14841:A 0
2 *14887:psum_out[2] 0.00169843
3 *398:19 0.0023118
4 *398:13 0.0023118
5 *398:11 0.00169843
6 *398:19 *402:17 0.00283387
7 *386:21 *398:19 0.000256467
*RES
1 *14887:psum_out[2] *398:11 35.2143 
2 *398:11 *398:13 15 
3 *398:13 *398:19 41.035 
4 *398:19 *14841:A 23 
*END

*D_NET *399 0.0129293
*CONN
*I *14842:A I *D sky130_fd_sc_hd__clkbuf_4
*I *14887:psum_out[30] O *D processing_element
*CAP
1 *14842:A 0.000354119
2 *14887:psum_out[30] 0.00060963
3 *399:13 0.00148451
4 *399:9 0.00363407
5 *399:7 0.00311331
6 *14842:A *400:17 0.000620179
7 *399:9 *400:9 0.000319524
8 *399:13 *400:13 0
9 *396:9 *399:9 0.00252615
10 *397:9 *399:9 0.000267837
*RES
1 *14887:psum_out[30] *399:7 27.5736 
2 *399:7 *399:9 42.0707 
3 *399:9 *399:13 36.9779 
4 *399:13 *14842:A 47.1971 
*END

*D_NET *400 0.0112627
*CONN
*I *14843:A I *D sky130_fd_sc_hd__clkbuf_4
*I *14887:psum_out[31] O *D processing_element
*CAP
1 *14843:A 0
2 *14887:psum_out[31] 0.00049245
3 *400:17 0.000653068
4 *400:13 0.00185931
5 *400:9 0.00254782
6 *400:7 0.00183403
7 *14842:A *400:17 0.000620179
8 *92:8 *400:17 0.000315857
9 *93:8 *400:17 9.84851e-05
10 *394:17 *400:7 5.91176e-05
11 *395:11 *400:9 1.59094e-05
12 *395:17 *400:7 9.03784e-05
13 *397:9 *400:9 0.00235655
14 *399:9 *400:9 0.000319524
15 *399:13 *400:13 0
*RES
1 *14887:psum_out[31] *400:7 26.5171 
2 *400:7 *400:9 37.3064 
3 *400:9 *400:13 38.3864 
4 *400:13 *400:17 30.3907 
5 *400:17 *14843:A 23 
*END

*D_NET *401 0.0145099
*CONN
*I *14887:act_in[11] I *D processing_element
*I *14730:X O *D sky130_fd_sc_hd__buf_1
*CAP
1 *14887:act_in[11] 0.000556319
2 *14730:X 0.000926962
3 *401:18 0.00163021
4 *401:10 0.00219071
5 *401:8 0.00204378
6 *14887:act_in[11] *14887:act_in[12] 0
7 *401:10 *455:10 0.000972896
8 *401:18 *498:16 1.09783e-05
9 *401:18 *520:10 2.11066e-05
10 *674:DIODE *401:8 4.51585e-05
11 *14887:act_in[10] *14887:act_in[11] 0
12 *301:20 *401:10 0.000583943
13 *313:18 *401:10 0.00154061
14 *339:10 *401:10 0.0039872
15 *390:16 *401:18 0
*RES
1 *14730:X *401:8 48.15 
2 *401:8 *401:10 52.2621 
3 *401:10 *401:18 44.2825 
4 *401:18 *14887:act_in[11] 10.0795 
*END

*D_NET *402 0.00979021
*CONN
*I *14844:A I *D sky130_fd_sc_hd__clkbuf_4
*I *14887:psum_out[3] O *D processing_element
*CAP
1 *14844:A 0
2 *14887:psum_out[3] 0.00149264
3 *402:17 0.00088635
4 *402:13 0.00088635
5 *402:11 0.00149264
6 *402:11 *404:17 0.000663771
7 *402:17 *14845:A 0.000301961
8 *402:17 *14846:A 0.000520997
9 *402:17 *14847:A 0.000354091
10 *386:17 *402:17 5.29672e-05
11 *386:21 *402:17 0.000304579
12 *398:19 *402:17 0.00283387
*RES
1 *14887:psum_out[3] *402:11 35.5664 
2 *402:11 *402:13 15 
3 *402:13 *402:17 39.4607 
4 *402:17 *14844:A 23 
*END

*D_NET *403 0.00912318
*CONN
*I *14845:A I *D sky130_fd_sc_hd__clkbuf_4
*I *14887:psum_out[4] O *D processing_element
*CAP
1 *14845:A 0.00013259
2 *14887:psum_out[4] 0.00155752
3 *403:13 0.00247187
4 *403:7 0.0038968
5 *96:10 *403:13 1.01436e-05
6 *386:21 *14845:A 0.000752298
7 *402:17 *14845:A 0.000301961
*RES
1 *14887:psum_out[4] *403:7 47.2936 
2 *403:7 *403:13 45.8643 
3 *403:13 *14845:A 46.2443 
*END

*D_NET *404 0.00847572
*CONN
*I *14846:A I *D sky130_fd_sc_hd__clkbuf_4
*I *14887:psum_out[5] O *D processing_element
*CAP
1 *14846:A 0.000676731
2 *14887:psum_out[5] 0.00159003
3 *404:17 0.00143619
4 *404:9 0.00234948
5 *14846:A *14847:A 0.000678643
6 *404:9 *405:15 0.000276082
7 *404:17 *14847:A 1.14154e-05
8 *386:17 *14846:A 0.000272377
9 *402:11 *404:17 0.000663771
10 *402:17 *14846:A 0.000520997
*RES
1 *14887:psum_out[5] *404:9 46.7136 
2 *404:9 *404:17 48.2493 
3 *404:17 *14846:A 41.8914 
*END

*D_NET *405 0.00821596
*CONN
*I *14847:A I *D sky130_fd_sc_hd__clkbuf_4
*I *14887:psum_out[6] O *D processing_element
*CAP
1 *14847:A 0.00105234
2 *14887:psum_out[6] 0.000853473
3 *405:15 0.00217139
4 *405:11 0.00197253
5 *14847:A *406:17 0.000752298
6 *14846:A *14847:A 0.000678643
7 *98:8 *14847:A 9.37067e-05
8 *402:17 *14847:A 0.000354091
9 *404:9 *405:15 0.000276082
10 *404:17 *14847:A 1.14154e-05
*RES
1 *14887:psum_out[6] *405:11 48.0007 
2 *405:11 *405:15 38.7386 
3 *405:15 *14847:A 45.9307 
*END

*D_NET *406 0.00713415
*CONN
*I *14848:A I *D sky130_fd_sc_hd__clkbuf_4
*I *14887:psum_out[7] O *D processing_element
*CAP
1 *14848:A 0
2 *14887:psum_out[7] 0.00170371
3 *406:17 0.000828481
4 *406:11 0.00253219
5 *406:17 *407:19 0.00131747
6 *14847:A *406:17 0.000752298
*RES
1 *14887:psum_out[7] *406:11 35.5664 
2 *406:11 *406:17 37.91 
3 *406:17 *14848:A 23 
*END

*D_NET *407 0.00660764
*CONN
*I *14849:A I *D sky130_fd_sc_hd__clkbuf_4
*I *14887:psum_out[8] O *D processing_element
*CAP
1 *14849:A 0
2 *14887:psum_out[8] 0.00169015
3 *407:19 0.000735089
4 *407:11 0.00242524
5 *407:19 *408:11 0.000382979
6 *14820:A *407:19 5.67058e-05
7 *406:17 *407:19 0.00131747
*RES
1 *14887:psum_out[8] *407:11 35.2143 
2 *407:11 *407:19 37.9307 
3 *407:19 *14849:A 23 
*END

*D_NET *408 0.00681094
*CONN
*I *14850:A I *D sky130_fd_sc_hd__clkbuf_4
*I *14887:psum_out[9] O *D processing_element
*CAP
1 *14850:A 0
2 *14887:psum_out[9] 0.00171417
3 *408:11 0.00123385
4 *408:5 0.00294802
5 psum_col0_out[11] *408:5 1.58805e-05
6 *14820:A *408:11 0.000419265
7 *71:8 *408:11 9.67842e-05
8 *407:19 *408:11 0.000382979
*RES
1 *14887:psum_out[9] *408:5 35.1107 
2 *408:5 *408:11 35.1757 
3 *408:11 *14850:A 23 
*END

*D_NET *409 0.00369394
*CONN
*I *14851:A I *D sky130_fd_sc_hd__clkbuf_4
*I *14888:psum_out[0] O *D processing_element
*CAP
1 *14851:A 0
2 *14888:psum_out[0] 0.00184697
3 *409:7 0.00184697
*RES
1 *14888:psum_out[0] *409:7 38.6011 
2 *409:7 *14851:A 38 
*END

*D_NET *410 0.00830965
*CONN
*I *14852:A I *D sky130_fd_sc_hd__clkbuf_4
*I *14888:psum_out[10] O *D processing_element
*CAP
1 *14852:A 0
2 *14888:psum_out[10] 0.00086312
3 *410:19 0.0011471
4 *410:13 0.00256646
5 *410:9 0.00228247
6 *410:13 *444:13 0.00139635
7 *134:8 *410:19 5.41385e-05
*RES
1 *14888:psum_out[10] *410:9 33.2596 
2 *410:9 *410:13 37.0607 
3 *410:13 *410:19 37.5371 
4 *410:19 *14852:A 23 
*END

*D_NET *411 0.00703366
*CONN
*I *14853:A I *D sky130_fd_sc_hd__clkbuf_4
*I *14888:psum_out[11] O *D processing_element
*CAP
1 *14853:A 0
2 *14888:psum_out[11] 0.00061242
3 *411:19 0.00112827
4 *411:13 0.00213098
5 *411:9 0.00161513
6 *411:13 *414:13 0.000822626
7 *411:13 *415:13 7.72119e-05
8 *411:13 *416:13 0.000208115
9 *411:19 *417:9 0.000406623
10 *135:8 *411:19 3.22879e-05
*RES
1 *14888:psum_out[11] *411:9 28.3296 
2 *411:9 *411:13 44.2071 
3 *411:13 *411:19 38.6557 
4 *411:19 *14853:A 23 
*END

*D_NET *412 0.0775067
*CONN
*I *14885:act_in[10] I *D processing_element
*I *780:DIODE I *D sky130_fd_sc_hd__diode_2
*I *14731:X O *D sky130_fd_sc_hd__clkbuf_4
*CAP
1 *14885:act_in[10] 0.000767796
2 *780:DIODE 0
3 *14731:X 0.000101661
4 *412:26 0.0012075
5 *412:22 0.00236258
6 *412:20 0.00192287
7 *412:18 0.0012755
8 *412:10 0.00881948
9 *412:8 0.00764565
10 *14885:act_in[10] *14885:act_in[11] 0
11 *412:10 *424:10 0.00439467
12 *412:10 *453:12 0.00249949
13 *412:10 *454:10 0.00038628
14 *412:10 *465:10 0.0255265
15 *412:10 *509:16 0.000166756
16 *412:10 *530:8 0.00744064
17 *412:18 *465:20 0.000546186
18 *412:22 *465:28 0
19 *607:DIODE *412:18 6.17437e-06
20 *686:DIODE *412:8 4.39278e-05
21 *14885:act_in[9] *14885:act_in[10] 0
22 *301:12 *412:10 0
23 *346:18 *412:22 0.00210443
24 *348:10 *412:22 0
25 *349:8 *412:10 2.45982e-05
26 *349:8 *412:18 0.000590111
27 *352:10 *412:10 0
28 *353:10 *412:10 0.00373049
29 *353:10 *412:18 1.11421e-05
30 *354:16 *412:10 0.00401657
31 *354:16 *412:18 0.000118028
32 *368:18 *412:10 0.0017977
*RES
1 *14731:X *412:8 39.5743 
2 *412:8 *412:10 354.577 
3 *412:10 *412:18 38.2518 
4 *412:18 *412:20 15 
5 *412:20 *412:22 44.8671 
6 *412:22 *412:26 20.3857 
7 *412:26 *780:DIODE 23 
8 *412:26 *14885:act_in[10] 34.9242 
*END

*D_NET *413 0.0147306
*CONN
*I *14887:act_in[12] I *D processing_element
*I *860:DIODE I *D sky130_fd_sc_hd__diode_2
*I *14732:X O *D sky130_fd_sc_hd__buf_1
*CAP
1 *14887:act_in[12] 0.00085325
2 *860:DIODE 0
3 *14732:X 0.000542173
4 *413:18 0.00224945
5 *413:10 0.00334459
6 *413:8 0.00249056
7 *14887:act_in[12] *14887:act_in[13] 1.70284e-05
8 *14887:act_in[12] *498:16 4.04908e-05
9 *14887:act_in[12] *520:10 7.60701e-05
10 *413:10 *530:8 0
11 *676:DIODE *413:8 4.51585e-05
12 *14887:act_in[11] *14887:act_in[12] 0
13 *342:16 *413:10 0.000898643
14 *344:10 *413:10 0.00417323
*RES
1 *14732:X *413:8 44.3386 
2 *413:8 *413:10 54.7271 
3 *413:10 *413:18 31.2607 
4 *413:18 *860:DIODE 23 
5 *413:18 *14887:act_in[12] 29.3623 
*END

*D_NET *414 0.00918907
*CONN
*I *14854:A I *D sky130_fd_sc_hd__clkbuf_4
*I *14888:psum_out[12] O *D processing_element
*CAP
1 *14854:A 0
2 *14888:psum_out[12] 0.000647906
3 *414:19 0.00134672
4 *414:13 0.00330929
5 *414:9 0.00261047
6 *414:13 *416:13 0
7 *414:19 *418:9 0.000298901
8 *136:8 *414:19 0.000153155
9 *411:13 *414:13 0.000822626
*RES
1 *14888:psum_out[12] *414:9 28.9096 
2 *414:9 *414:13 44.6836 
3 *414:13 *414:19 42.84 
4 *414:19 *14854:A 23 
*END

*D_NET *415 0.0086419
*CONN
*I *14855:A I *D sky130_fd_sc_hd__clkbuf_4
*I *14888:psum_out[13] O *D processing_element
*CAP
1 *14855:A 0
2 *14888:psum_out[13] 0.000535294
3 *415:19 0.00163773
4 *415:13 0.00264765
5 *415:9 0.00154522
6 *415:13 *416:13 0.00200185
7 *415:19 *419:9 0.000142808
8 *137:8 *415:19 5.41385e-05
9 *411:13 *415:13 7.72119e-05
*RES
1 *14888:psum_out[13] *415:9 26.5689 
2 *415:9 *415:13 44.2071 
3 *415:13 *415:19 47.0864 
4 *415:19 *14855:A 23 
*END

*D_NET *416 0.00907549
*CONN
*I *14856:A I *D sky130_fd_sc_hd__clkbuf_4
*I *14888:psum_out[14] O *D processing_element
*CAP
1 *14856:A 0
2 *14888:psum_out[14] 0.000560829
3 *416:19 0.00177046
4 *416:13 0.00268424
5 *416:9 0.00147461
6 *416:13 *419:11 0.000212797
7 *416:19 *420:9 0.000100931
8 *137:8 *416:19 7.53384e-06
9 *138:8 *416:19 5.41385e-05
10 *411:13 *416:13 0.000208115
11 *414:13 *416:13 0
12 *415:13 *416:13 0.00200185
*RES
1 *14888:psum_out[14] *416:9 26.9211 
2 *416:9 *416:13 44.6836 
3 *416:13 *416:19 49.5929 
4 *416:19 *14856:A 23 
*END

*D_NET *417 0.0101347
*CONN
*I *14857:A I *D sky130_fd_sc_hd__clkbuf_4
*I *14888:psum_out[15] O *D processing_element
*CAP
1 *14857:A 0
2 *14888:psum_out[15] 0.000831442
3 *417:19 0.00130627
4 *417:13 0.00251239
5 *417:9 0.00203756
6 *417:13 *418:13 0.00241267
7 *417:19 *14858:A 0.000620179
8 *417:19 *418:17 0
9 *138:8 *417:19 7.53384e-06
10 *411:19 *417:9 0.000406623
*RES
1 *14888:psum_out[15] *417:9 33.6118 
2 *417:9 *417:13 48.0186 
3 *417:13 *417:19 42.9021 
4 *417:19 *14857:A 23 
*END

*D_NET *418 0.012572
*CONN
*I *14858:A I *D sky130_fd_sc_hd__clkbuf_4
*I *14888:psum_out[16] O *D processing_element
*CAP
1 *14858:A 0.000756503
2 *14888:psum_out[16] 0.000829734
3 *418:17 0.0017041
4 *418:13 0.00275235
5 *418:9 0.00263449
6 *14858:A *419:23 0.000321053
7 *139:8 *14858:A 0.00014196
8 *140:8 *14858:A 0.000100069
9 *414:19 *418:9 0.000298901
10 *417:13 *418:13 0.00241267
11 *417:19 *14858:A 0.000620179
12 *417:19 *418:17 0
*RES
1 *14888:psum_out[16] *418:9 33.2596 
2 *418:9 *418:13 44.2071 
3 *418:13 *418:17 33.4564 
4 *418:17 *14858:A 40.2964 
*END

*D_NET *419 0.0118723
*CONN
*I *14859:A I *D sky130_fd_sc_hd__clkbuf_4
*I *14888:psum_out[17] O *D processing_element
*CAP
1 *14859:A 0
2 *14888:psum_out[17] 0.000600584
3 *419:23 0.000576241
4 *419:15 0.00177549
5 *419:11 0.00218219
6 *419:9 0.00158352
7 *419:11 *420:13 0.000238186
8 *419:11 *421:11 0.00200706
9 *419:11 *423:11 0.000742785
10 *419:15 *420:17 0
11 *419:23 *14860:A 0.00110551
12 *14858:A *419:23 0.000321053
13 *140:8 *419:23 2.47321e-05
14 *141:8 *419:23 0.000359332
15 *415:19 *419:9 0.000142808
16 *416:13 *419:11 0.000212797
*RES
1 *14888:psum_out[17] *419:9 28.3296 
2 *419:9 *419:11 35.8771 
3 *419:11 *419:15 38.0343 
4 *419:15 *419:23 32.4621 
5 *419:23 *14859:A 23 
*END

*D_NET *420 0.0125641
*CONN
*I *14860:A I *D sky130_fd_sc_hd__clkbuf_4
*I *14888:psum_out[18] O *D processing_element
*CAP
1 *14860:A 0.00060691
2 *14888:psum_out[18] 0.000644057
3 *420:17 0.00174926
4 *420:13 0.00314773
5 *420:9 0.00264944
6 *14860:A *421:19 0.000376144
7 *420:13 *421:11 0.000767375
8 *420:13 *425:11 0.00109962
9 *141:8 *14860:A 2.4754e-05
10 *142:8 *14860:A 5.41385e-05
11 *416:19 *420:9 0.000100931
12 *419:11 *420:13 0.000238186
13 *419:15 *420:17 0
14 *419:23 *14860:A 0.00110551
*RES
1 *14888:psum_out[18] *420:9 29.3861 
2 *420:9 *420:13 48.495 
3 *420:13 *420:17 36.9779 
4 *420:17 *14860:A 42.6786 
*END

*D_NET *421 0.0130917
*CONN
*I *764:DIODE I *D sky130_fd_sc_hd__diode_2
*I *14861:A I *D sky130_fd_sc_hd__clkbuf_4
*I *14888:psum_out[19] O *D processing_element
*CAP
1 *764:DIODE 0
2 *14861:A 0.000124713
3 *14888:psum_out[19] 0.000617085
4 *421:19 0.00141692
5 *421:15 0.00240954
6 *421:11 0.00166698
7 *421:9 0.00116673
8 *421:11 *423:11 0.000506747
9 *421:11 *425:11 0.00197316
10 *14860:A *421:19 0.000376144
11 *142:8 *421:19 5.14746e-06
12 *143:8 *14861:A 5.41385e-05
13 *419:11 *421:11 0.00200706
14 *420:13 *421:11 0.000767375
*RES
1 *14888:psum_out[19] *421:9 28.2054 
2 *421:9 *421:11 36.3536 
3 *421:11 *421:15 36.6257 
4 *421:15 *421:19 34.2021 
5 *421:19 *14861:A 25.7757 
6 *421:19 *764:DIODE 23 
*END

*D_NET *422 0.00352869
*CONN
*I *14862:A I *D sky130_fd_sc_hd__clkbuf_4
*I *14888:psum_out[1] O *D processing_element
*CAP
1 *14862:A 6.42613e-05
2 *14888:psum_out[1] 0.00170008
3 *422:11 0.00176434
*RES
1 *14888:psum_out[1] *422:11 49.9346 
2 *422:11 *14862:A 24.0979 
*END

*D_NET *423 0.0130145
*CONN
*I *14863:A I *D sky130_fd_sc_hd__clkbuf_4
*I *765:DIODE I *D sky130_fd_sc_hd__diode_2
*I *14888:psum_out[20] O *D processing_element
*CAP
1 *14863:A 0.000180276
2 *765:DIODE 0
3 *14888:psum_out[20] 0.000581569
4 *423:17 0.000180276
5 *423:15 0.00120028
6 *423:11 0.0024061
7 *423:9 0.00178739
8 *423:11 *425:11 0.000193557
9 *423:11 *426:11 0.00401035
10 *423:11 *429:11 0.00110211
11 *423:11 *432:11 9.67842e-05
12 *423:15 *432:9 1.58805e-05
13 *145:8 *14863:A 1.04196e-05
14 *419:11 *423:11 0.000742785
15 *421:11 *423:11 0.000506747
*RES
1 *14888:psum_out[20] *423:9 27.6254 
2 *423:9 *423:11 58.2693 
3 *423:11 *423:15 37.6821 
4 *423:15 *423:17 15 
5 *423:17 *765:DIODE 23 
6 *423:17 *14863:A 25.7757 
*END

*D_NET *424 0.0175501
*CONN
*I *14887:act_in[13] I *D processing_element
*I *861:DIODE I *D sky130_fd_sc_hd__diode_2
*I *14733:X O *D sky130_fd_sc_hd__buf_1
*CAP
1 *14887:act_in[13] 0.000875217
2 *861:DIODE 0
3 *14733:X 0.000253631
4 *424:18 0.00262377
5 *424:10 0.00282329
6 *424:8 0.00132837
7 *14887:act_in[13] *14887:act_in[14] 0
8 *424:10 *530:8 0.00439244
9 *424:18 *455:8 5.90726e-05
10 *677:DIODE *424:8 0.000139692
11 *14887:act_in[12] *14887:act_in[13] 1.70284e-05
12 *354:16 *424:10 0.000642962
13 *412:10 *424:10 0.00439467
*RES
1 *14733:X *424:8 41.0036 
2 *424:8 *424:10 57.5443 
3 *424:10 *424:18 35.3 
4 *424:18 *861:DIODE 23 
5 *424:18 *14887:act_in[13] 36.6849 
*END

*D_NET *425 0.0152849
*CONN
*I *766:DIODE I *D sky130_fd_sc_hd__diode_2
*I *14864:A I *D sky130_fd_sc_hd__clkbuf_4
*I *14888:psum_out[21] O *D processing_element
*CAP
1 *766:DIODE 0
2 *14864:A 0.000119948
3 *14888:psum_out[21] 0.00067357
4 *425:17 0.000119948
5 *425:15 0.00111413
6 *425:11 0.00286057
7 *425:9 0.00242001
8 *14864:A *428:19 0.000187129
9 *425:11 *429:11 0.000346557
10 *425:11 *430:11 0.00243569
11 *425:11 *431:11 0.001741
12 *425:15 *433:9 0
13 *420:13 *425:11 0.00109962
14 *421:11 *425:11 0.00197316
15 *423:11 *425:11 0.000193557
*RES
1 *14888:psum_out[21] *425:9 29.0339 
2 *425:9 *425:11 62.0807 
3 *425:11 *425:15 36.2736 
4 *425:15 *425:17 15 
5 *425:17 *14864:A 26.2521 
6 *425:17 *766:DIODE 23 
*END

*D_NET *426 0.01667
*CONN
*I *767:DIODE I *D sky130_fd_sc_hd__diode_2
*I *14865:A I *D sky130_fd_sc_hd__clkbuf_4
*I *14888:psum_out[22] O *D processing_element
*CAP
1 *767:DIODE 0
2 *14865:A 0.000105265
3 *14888:psum_out[22] 0.000566144
4 *426:17 0.000105265
5 *426:15 0.00120902
6 *426:11 0.00220508
7 *426:9 0.00156221
8 *14865:A *428:19 0.000143655
9 *426:11 *427:11 0.00525174
10 *426:11 *432:11 0.000675112
11 *426:11 *436:11 0.000702819
12 *426:15 *427:15 0
13 *426:15 *437:9 0.000133316
14 *423:11 *426:11 0.00401035
*RES
1 *14888:psum_out[22] *426:9 27.2732 
2 *426:9 *426:11 64.9393 
3 *426:11 *426:15 38.0343 
4 *426:15 *426:17 15 
5 *426:17 *14865:A 25.7757 
6 *426:17 *767:DIODE 23 
*END

*D_NET *427 0.0163178
*CONN
*I *768:DIODE I *D sky130_fd_sc_hd__diode_2
*I *14866:A I *D sky130_fd_sc_hd__clkbuf_4
*I *14888:psum_out[23] O *D processing_element
*CAP
1 *768:DIODE 0
2 *14866:A 0.000103021
3 *14888:psum_out[23] 0.000555988
4 *427:19 0.000649606
5 *427:15 0.00180345
6 *427:11 0.00247959
7 *427:9 0.00177871
8 *14866:A *428:19 0.000143655
9 *427:11 *428:11 0.00321823
10 *427:11 *436:11 9.45591e-05
11 *427:19 *428:19 0.000239291
12 *426:11 *427:11 0.00525174
13 *426:15 *427:15 0
*RES
1 *14888:psum_out[23] *427:9 26.9211 
2 *427:9 *427:11 59.6986 
3 *427:11 *427:15 38.3864 
4 *427:15 *427:19 23.7207 
5 *427:19 *14866:A 25.7757 
6 *427:19 *768:DIODE 23 
*END

*D_NET *428 0.0144878
*CONN
*I *14867:A I *D sky130_fd_sc_hd__clkbuf_4
*I *769:DIODE I *D sky130_fd_sc_hd__diode_2
*I *14888:psum_out[24] O *D processing_element
*CAP
1 *14867:A 4.09657e-05
2 *769:DIODE 0
3 *14888:psum_out[24] 0.000535294
4 *428:19 0.0018096
5 *428:17 0.00176863
6 *428:15 0.00121554
7 *428:11 0.00231283
8 *428:9 0.00163258
9 *14867:A *433:21 0.00010018
10 *428:15 *433:9 0.000528916
11 *14864:A *428:19 0.000187129
12 *14865:A *428:19 0.000143655
13 *14866:A *428:19 0.000143655
14 *146:8 *428:19 0.000228909
15 *147:8 *428:19 0.00014196
16 *148:8 *428:19 0.00014196
17 *149:8 *14867:A 9.84851e-05
18 *427:11 *428:11 0.00321823
19 *427:19 *428:19 0.000239291
*RES
1 *14888:psum_out[24] *428:9 26.5689 
2 *428:9 *428:11 35.4007 
3 *428:11 *428:15 40.1471 
4 *428:15 *428:17 15 
5 *428:17 *428:19 36.3536 
6 *428:19 *769:DIODE 23 
7 *428:19 *14867:A 24.5743 
*END

*D_NET *429 0.0184655
*CONN
*I *14868:A I *D sky130_fd_sc_hd__clkbuf_4
*I *770:DIODE I *D sky130_fd_sc_hd__diode_2
*I *14888:psum_out[25] O *D processing_element
*CAP
1 *14868:A 0.00024523
2 *770:DIODE 0
3 *14888:psum_out[25] 0.000652829
4 *429:17 0.00024523
5 *429:15 0.00116371
6 *429:11 0.00215452
7 *429:9 0.00164364
8 *14868:A *433:33 9.5225e-05
9 *429:11 *430:11 0.00607995
10 *429:11 *432:11 0.00473654
11 *423:11 *429:11 0.00110211
12 *425:11 *429:11 0.000346557
*RES
1 *14888:psum_out[25] *429:9 28.3296 
2 *429:9 *429:11 73.515 
3 *429:11 *429:15 36.9779 
4 *429:15 *429:17 15 
5 *429:17 *770:DIODE 23 
6 *429:17 *14868:A 27.205 
*END

*D_NET *430 0.0198068
*CONN
*I *14869:A I *D sky130_fd_sc_hd__clkbuf_4
*I *771:DIODE I *D sky130_fd_sc_hd__diode_2
*I *14888:psum_out[26] O *D processing_element
*CAP
1 *14869:A 0.000178573
2 *771:DIODE 0
3 *14888:psum_out[26] 0.000657495
4 *430:19 0.000452089
5 *430:15 0.0014117
6 *430:11 0.00213293
7 *430:9 0.00165224
8 *14869:A *433:33 7.76765e-05
9 *430:11 *431:11 0.000486003
10 *430:11 *432:11 0.00046587
11 *430:11 *437:11 0.00361232
12 *430:19 *433:33 0.000164275
13 *425:11 *430:11 0.00243569
14 *429:11 *430:11 0.00607995
*RES
1 *14888:psum_out[26] *430:9 28.2054 
2 *430:9 *430:11 75.8971 
3 *430:11 *430:15 36.6257 
4 *430:15 *430:19 19.4329 
5 *430:19 *771:DIODE 23 
6 *430:19 *14869:A 26.2521 
*END

*D_NET *431 0.0215882
*CONN
*I *772:DIODE I *D sky130_fd_sc_hd__diode_2
*I *14870:A I *D sky130_fd_sc_hd__clkbuf_4
*I *14888:psum_out[27] O *D processing_element
*CAP
1 *772:DIODE 0
2 *14870:A 0
3 *14888:psum_out[27] 0.000729434
4 *431:27 0.0001011
5 *431:19 0.000254516
6 *431:15 0.000896356
7 *431:11 0.00536822
8 *431:9 0.00535471
9 *431:11 *437:11 0.00461447
10 *431:15 *432:15 0.00159098
11 *431:19 *432:21 0.000228903
12 *431:27 *432:21 7.88926e-05
13 *431:27 *433:33 0.000143655
14 *431:27 *436:15 0
15 *425:11 *431:11 0.001741
16 *430:11 *431:11 0.000486003
*RES
1 *14888:psum_out[27] *431:9 29.3861 
2 *431:9 *431:11 79.2321 
3 *431:11 *431:15 35.9214 
4 *431:15 *431:19 17.5271 
5 *431:19 *431:27 32.7757 
6 *431:27 *14870:A 23 
7 *431:19 *772:DIODE 23 
*END

*D_NET *432 0.0208016
*CONN
*I *773:DIODE I *D sky130_fd_sc_hd__diode_2
*I *14871:A I *D sky130_fd_sc_hd__clkbuf_4
*I *14888:psum_out[28] O *D processing_element
*CAP
1 *773:DIODE 0
2 *14871:A 0
3 *14888:psum_out[28] 0.000631749
4 *432:29 0.00012825
5 *432:21 0.00066794
6 *432:15 0.00137255
7 *432:11 0.00183686
8 *432:9 0.00163574
9 *432:11 *436:11 0.00522832
10 *432:11 *437:11 0.000372492
11 *432:21 *433:33 0.000118217
12 *432:21 *433:35 0.000148524
13 *432:21 *436:19 0.000531529
14 *432:29 *433:35 0.00014196
15 *153:8 *432:29 9.84851e-05
16 *423:11 *432:11 9.67842e-05
17 *423:15 *432:9 1.58805e-05
18 *426:11 *432:11 0.000675112
19 *429:11 *432:11 0.00473654
20 *430:11 *432:11 0.00046587
21 *431:15 *432:15 0.00159098
22 *431:19 *432:21 0.000228903
23 *431:27 *432:21 7.88926e-05
*RES
1 *14888:psum_out[28] *432:9 27.9775 
2 *432:9 *432:11 71.6093 
3 *432:11 *432:15 37.33 
4 *432:15 *432:21 28.9821 
5 *432:21 *432:29 32.7757 
6 *432:29 *14871:A 23 
7 *432:21 *773:DIODE 23 
*END

*D_NET *433 0.0160409
*CONN
*I *14872:A I *D sky130_fd_sc_hd__clkbuf_4
*I *774:DIODE I *D sky130_fd_sc_hd__diode_2
*I *14888:psum_out[29] O *D processing_element
*CAP
1 *14872:A 3.46576e-05
2 *774:DIODE 0
3 *14888:psum_out[29] 0.00083156
4 *433:35 0.000652887
5 *433:33 0.00209537
6 *433:21 0.00247027
7 *433:11 0.00312958
8 *433:9 0.00296801
9 *14872:A *436:19 0.000143655
10 *433:35 *436:19 0.00148876
11 *14867:A *433:21 0.00010018
12 *14868:A *433:33 9.5225e-05
13 *14869:A *433:33 7.76765e-05
14 *149:8 *433:21 1.72202e-05
15 *149:8 *433:33 1.32314e-05
16 *150:8 *433:33 0.00014196
17 *151:12 *433:33 0.00031425
18 *152:8 *433:33 0.00014196
19 *153:8 *433:35 2.4754e-05
20 *154:8 *14872:A 5.41385e-05
21 *425:15 *433:9 0
22 *428:15 *433:9 0.000528916
23 *430:19 *433:33 0.000164275
24 *431:27 *433:33 0.000143655
25 *432:21 *433:33 0.000118217
26 *432:21 *433:35 0.000148524
27 *432:29 *433:35 0.00014196
*RES
1 *14888:psum_out[29] *433:9 33.6118 
2 *433:9 *433:11 36.3536 
3 *433:11 *433:21 49.8236 
4 *433:21 *433:33 33.3707 
5 *433:33 *433:35 19.2021 
6 *433:35 *774:DIODE 23 
7 *433:35 *14872:A 24.5743 
*END

*D_NET *434 0.00346549
*CONN
*I *14873:A I *D sky130_fd_sc_hd__clkbuf_4
*I *14888:psum_out[2] O *D processing_element
*CAP
1 *14873:A 0
2 *14888:psum_out[2] 0.00173274
3 *434:7 0.00173274
*RES
1 *14888:psum_out[2] *434:7 35.7425 
2 *434:7 *14873:A 38 
*END

*D_NET *435 0.0172187
*CONN
*I *14887:act_in[14] I *D processing_element
*I *862:DIODE I *D sky130_fd_sc_hd__diode_2
*I *14734:X O *D sky130_fd_sc_hd__buf_1
*CAP
1 *14887:act_in[14] 0.00101255
2 *862:DIODE 0
3 *14734:X 0.00150844
4 *435:14 0.00101255
5 *435:12 0.00115872
6 *435:10 0.00115872
7 *435:8 0.00150844
8 *14887:act_in[14] *14887:act_in[15] 0
9 *435:12 *476:14 0.00485867
10 *678:DIODE *435:8 0.000139692
11 *14887:act_in[13] *14887:act_in[14] 0
12 *355:18 *435:12 0.0048609
*RES
1 *14734:X *435:8 44.1286 
2 *435:8 *435:10 15 
3 *435:10 *435:12 63.5307 
4 *435:12 *435:14 15 
5 *435:14 *862:DIODE 23 
6 *435:14 *14887:act_in[14] 38.9221 
*END

*D_NET *436 0.0202017
*CONN
*I *14874:A I *D sky130_fd_sc_hd__clkbuf_4
*I *775:DIODE I *D sky130_fd_sc_hd__diode_2
*I *14888:psum_out[30] O *D processing_element
*CAP
1 *14874:A 9.18895e-05
2 *775:DIODE 0
3 *14888:psum_out[30] 0.000601789
4 *436:25 0.000112661
5 *436:19 0.000973327
6 *436:15 0.00198401
7 *436:11 0.00423439
8 *436:9 0.00362095
9 *436:11 *437:11 0.000192703
10 *436:19 *14875:A 0.00014196
11 *436:25 *14875:A 0
12 *14872:A *436:19 0.000143655
13 *154:8 *436:19 1.76557e-05
14 *157:8 *14874:A 4.06849e-05
15 *426:11 *436:11 0.000702819
16 *427:11 *436:11 9.45591e-05
17 *431:27 *436:15 0
18 *432:11 *436:11 0.00522832
19 *432:21 *436:19 0.000531529
20 *433:35 *436:19 0.00148876
*RES
1 *14888:psum_out[30] *436:9 27.6254 
2 *436:9 *436:11 64.9393 
3 *436:11 *436:15 38.3864 
4 *436:15 *436:19 38.49 
5 *436:19 *436:25 31.9057 
6 *436:25 *775:DIODE 23 
7 *436:19 *14874:A 25.0714 
*END

*D_NET *437 0.0173746
*CONN
*I *776:DIODE I *D sky130_fd_sc_hd__diode_2
*I *14875:A I *D sky130_fd_sc_hd__clkbuf_4
*I *14888:psum_out[31] O *D processing_element
*CAP
1 *776:DIODE 0
2 *14875:A 0.00024002
3 *14888:psum_out[31] 0.000671143
4 *437:15 0.00122265
5 *437:11 0.0032425
6 *437:9 0.00293101
7 *426:15 *437:9 0.000133316
8 *430:11 *437:11 0.00361232
9 *431:11 *437:11 0.00461447
10 *432:11 *437:11 0.000372492
11 *436:11 *437:11 0.000192703
12 *436:19 *14875:A 0.00014196
13 *436:25 *14875:A 0
*RES
1 *14888:psum_out[31] *437:9 29.0339 
2 *437:9 *437:11 78.2793 
3 *437:11 *437:15 34.1607 
4 *437:15 *14875:A 42.8886 
5 *437:15 *776:DIODE 38 
*END

*D_NET *438 0.00422073
*CONN
*I *14876:A I *D sky130_fd_sc_hd__clkbuf_4
*I *14888:psum_out[3] O *D processing_element
*CAP
1 *14876:A 0.000221743
2 *14888:psum_out[3] 0.00178729
3 *438:11 0.00200903
4 *158:8 *14876:A 0.000202663
*RES
1 *14888:psum_out[3] *438:11 36.9854 
2 *438:11 *14876:A 43.3857 
*END

*D_NET *439 0.00424004
*CONN
*I *14877:A I *D sky130_fd_sc_hd__clkbuf_4
*I *14888:psum_out[4] O *D processing_element
*CAP
1 *14877:A 0.000305661
2 *14888:psum_out[4] 0.00178729
3 *439:11 0.00209295
4 *159:8 *14877:A 5.41385e-05
*RES
1 *14888:psum_out[4] *439:11 36.9854 
2 *439:11 *14877:A 43.8621 
*END

*D_NET *440 0.0046679
*CONN
*I *14878:A I *D sky130_fd_sc_hd__clkbuf_4
*I *14888:psum_out[5] O *D processing_element
*CAP
1 *14878:A 0.000474723
2 *14888:psum_out[5] 0.00178825
3 *440:11 0.00226297
4 *14878:A *441:15 0.00014196
*RES
1 *14888:psum_out[5] *440:11 36.9854 
2 *440:11 *14878:A 47.1971 
*END

*D_NET *441 0.00527131
*CONN
*I *14879:A I *D sky130_fd_sc_hd__clkbuf_4
*I *14888:psum_out[6] O *D processing_element
*CAP
1 *14879:A 0
2 *14888:psum_out[6] 0.00183293
3 *441:15 0.000611526
4 *441:11 0.00244445
5 *14878:A *441:15 0.00014196
6 *160:8 *441:15 0.00014196
7 *161:8 *441:15 9.84851e-05
*RES
1 *14888:psum_out[6] *441:11 37.8139 
2 *441:11 *441:15 27.0557 
3 *441:15 *14879:A 23 
*END

*D_NET *442 0.00690355
*CONN
*I *14880:A I *D sky130_fd_sc_hd__clkbuf_4
*I *14888:psum_out[7] O *D processing_element
*CAP
1 *14880:A 0
2 *14888:psum_out[7] 0.000925195
3 *442:19 0.00116443
4 *442:13 0.00208963
5 *442:19 *443:11 0.00184327
6 *442:19 *443:15 0.000881026
*RES
1 *14888:psum_out[7] *442:13 49.5646 
2 *442:13 *442:19 49.2407 
3 *442:19 *14880:A 23 
*END

*D_NET *443 0.0076036
*CONN
*I *14881:A I *D sky130_fd_sc_hd__clkbuf_4
*I *14888:psum_out[8] O *D processing_element
*CAP
1 *14881:A 0
2 *14888:psum_out[8] 0.00142745
3 *443:15 0.000848509
4 *443:11 0.00227596
5 *162:8 *443:15 0.000228909
6 *163:8 *443:15 9.84851e-05
7 *442:19 *443:11 0.00184327
8 *442:19 *443:15 0.000881026
*RES
1 *14888:psum_out[8] *443:11 37.3375 
2 *443:11 *443:15 34.2021 
3 *443:15 *14881:A 23 
*END

*D_NET *444 0.00678917
*CONN
*I *14882:A I *D sky130_fd_sc_hd__clkbuf_4
*I *14888:psum_out[9] O *D processing_element
*CAP
1 *14882:A 0
2 *14888:psum_out[9] 0.000877572
3 *444:19 0.000950689
4 *444:13 0.00179177
5 *444:9 0.00171865
6 *164:8 *444:19 5.41385e-05
7 *410:13 *444:13 0.00139635
*RES
1 *14888:psum_out[9] *444:9 33.6118 
2 *444:9 *444:13 37.0607 
3 *444:13 *444:19 33.85 
4 *444:19 *14882:A 23 
*END

*D_NET *445 0.0447205
*CONN
*I *777:DIODE I *D sky130_fd_sc_hd__diode_2
*I *14883:A I *D sky130_fd_sc_hd__clkbuf_4
*I *14886:valid_out O *D processing_element
*CAP
1 *777:DIODE 0
2 *14883:A 0.000118359
3 *14886:valid_out 0.000787808
4 *445:21 0.000171862
5 *445:17 0.00187524
6 *445:15 0.00182174
7 *445:13 0.00369071
8 *445:11 0.00369071
9 *445:9 0.0122841
10 *445:7 0.0130719
11 *445:17 *447:19 0.00116654
12 *35:9 *445:9 0.00584829
13 *321:10 *445:17 0.000193173
*RES
1 *14886:valid_out *445:7 10.6469 
2 *445:7 *445:9 236.257 
3 *445:9 *445:11 15 
4 *445:11 *445:13 62.5571 
5 *445:13 *445:15 15 
6 *445:15 *445:17 40.9936 
7 *445:17 *445:21 15.6214 
8 *445:21 *14883:A 25.0714 
9 *445:21 *777:DIODE 23 
*END

*D_NET *446 0.0175455
*CONN
*I *14887:act_in[15] I *D processing_element
*I *863:DIODE I *D sky130_fd_sc_hd__diode_2
*I *14735:X O *D sky130_fd_sc_hd__dlymetal6s2s_1
*CAP
1 *14887:act_in[15] 0.000961289
2 *863:DIODE 0
3 *14735:X 0
4 *446:12 0.00260864
5 *446:8 0.00374871
6 *446:6 0.00210136
7 *14887:act_in[15] *456:8 1.55097e-05
8 *14887:act_in[15] *498:22 0.000135037
9 *446:8 *457:8 0.000520622
10 *446:8 *509:16 0.00109524
11 *446:12 *456:8 0.000380246
12 *688:DIODE *446:12 5.25022e-05
13 *14887:act_in[14] *14887:act_in[15] 0
14 *349:8 *446:8 0.0050795
15 *352:10 *446:8 0
16 *390:10 *446:8 0.000830806
17 *390:12 *446:8 1.60583e-05
*RES
1 *14735:X *446:6 38 
2 *446:6 *446:8 66.7 
3 *446:8 *446:12 35.155 
4 *446:12 *863:DIODE 23 
5 *446:12 *14887:act_in[15] 38.9221 
*END

*D_NET *447 0.015961
*CONN
*I *14884:A I *D sky130_fd_sc_hd__clkbuf_4
*I *778:DIODE I *D sky130_fd_sc_hd__diode_2
*I *14888:valid_out O *D processing_element
*CAP
1 *14884:A 0.000146126
2 *778:DIODE 0
3 *14888:valid_out 0.00115222
4 *447:21 0.000146126
5 *447:19 0.00160779
6 *447:17 0.00160779
7 *447:15 0.00449108
8 *447:13 0.00564331
9 *36:23 *447:19 0
10 *445:17 *447:19 0.00116654
*RES
1 *14888:valid_out *447:13 28.7031 
2 *447:13 *447:15 59.6986 
3 *447:15 *447:17 15 
4 *447:17 *447:19 35.0071 
5 *447:19 *447:21 15 
6 *447:21 *778:DIODE 23 
7 *447:21 *14884:A 25.7757 
*END

*D_NET *448 0.00678371
*CONN
*I *14887:act_in[1] I *D processing_element
*I *14736:X O *D sky130_fd_sc_hd__buf_1
*CAP
1 *14887:act_in[1] 0.000708016
2 *14736:X 0.000932701
3 *448:14 0.00193796
4 *448:8 0.00216264
5 *14887:act_in[1] *454:18 4.49163e-05
6 *14887:act_in[1] *520:10 0.000155462
7 *448:14 *449:14 0
8 *680:DIODE *448:8 0.000140939
9 *339:10 *448:14 0.000258343
10 *368:22 *448:14 0.000167448
11 *379:10 *448:14 0.000275283
*RES
1 *14736:X *448:8 48.6264 
2 *448:8 *448:14 35.3207 
3 *448:14 *14887:act_in[1] 27.4151 
*END

*D_NET *449 0.00805228
*CONN
*I *14887:act_in[2] I *D processing_element
*I *14737:X O *D sky130_fd_sc_hd__buf_1
*CAP
1 *14887:act_in[2] 0.0005791
2 *14737:X 0.000520435
3 *449:14 0.00273135
4 *449:8 0.00267269
5 *14887:act_in[2] *14887:act_in[3] 0
6 *14887:act_in[2] *454:18 1.70886e-05
7 *14887:act_in[2] *520:10 4.82745e-05
8 *449:14 *530:8 0
9 *681:DIODE *449:8 7.43308e-05
10 *342:16 *449:14 0.000251021
11 *344:10 *449:14 0.00115799
12 *448:14 *449:14 0
*RES
1 *14737:X *449:8 44.3386 
2 *449:8 *449:14 48.06 
3 *449:14 *14887:act_in[2] 25.7527 
*END

*D_NET *450 0.00847698
*CONN
*I *14887:act_in[3] I *D processing_element
*I *14738:X O *D sky130_fd_sc_hd__buf_1
*CAP
1 *14887:act_in[3] 0.00066137
2 *14738:X 0.00091076
3 *450:14 0.0017205
4 *450:8 0.00196989
5 *14887:act_in[3] *14887:act_in[4] 0
6 *14887:act_in[3] *454:18 3.68514e-05
7 *14887:act_in[3] *520:10 0.000103866
8 *682:DIODE *450:8 4.64608e-05
9 *14887:act_in[2] *14887:act_in[3] 0
10 *301:20 *450:14 0.000178678
11 *313:16 *450:14 9.84794e-05
12 *313:18 *450:14 0.00061963
13 *339:10 *450:14 0.00121897
14 *350:16 *450:14 0.000911526
*RES
1 *14738:X *450:8 48.15 
2 *450:8 *450:14 44.9529 
3 *450:14 *14887:act_in[3] 26.7108 
*END

*D_NET *451 0.00885597
*CONN
*I *14887:act_in[4] I *D processing_element
*I *14739:X O *D sky130_fd_sc_hd__buf_1
*CAP
1 *14887:act_in[4] 0.000986986
2 *14739:X 0.00150997
3 *451:14 0.00201097
4 *451:6 0.00253396
5 *683:DIODE *451:6 4.88684e-05
6 *14887:act_in[3] *14887:act_in[4] 0
7 *346:18 *451:14 0.00176521
*RES
1 *14739:X *451:6 39.82 
2 *451:6 *451:14 48.6132 
3 *451:14 *14887:act_in[4] 3.15093 
*END

*D_NET *452 0.00989642
*CONN
*I *14887:act_in[5] I *D processing_element
*I *14740:X O *D sky130_fd_sc_hd__buf_1
*CAP
1 *14887:act_in[5] 0.000771172
2 *14740:X 0.00135312
3 *452:12 0.0012704
4 *452:6 0.00185235
5 *14887:act_in[5] *14887:act_in[6] 0.000316646
6 *452:6 *457:12 0.000379021
7 *452:12 *476:14 0.00195231
8 *684:DIODE *452:6 4.64608e-05
9 *355:18 *452:12 0.00195494
*RES
1 *14740:X *452:6 43.6314 
2 *452:6 *452:12 48.6754 
3 *452:12 *14887:act_in[5] 3.18827 
*END

*D_NET *453 0.0114197
*CONN
*I *14887:act_in[6] I *D processing_element
*I *14741:X O *D sky130_fd_sc_hd__buf_1
*CAP
1 *14887:act_in[6] 0.00190918
2 *14741:X 0.00025821
3 *453:12 0.00256343
4 *453:8 0.000912461
5 *14887:act_in[6] *14887:act_in[7] 0
6 *14887:act_in[6] *454:22 0
7 *14887:act_in[6] *520:10 2.11157e-05
8 *453:12 *530:8 0.00249726
9 *685:DIODE *453:8 7.43308e-05
10 *14887:act_in[5] *14887:act_in[6] 0.000316646
11 *354:16 *453:12 0.000367539
12 *412:10 *453:12 0.00249949
*RES
1 *14741:X *453:8 41.0036 
2 *453:8 *453:12 47.8943 
3 *453:12 *14887:act_in[6] 46.5084 
*END

*D_NET *454 0.0659866
*CONN
*I *14885:act_in[11] I *D processing_element
*I *781:DIODE I *D sky130_fd_sc_hd__diode_2
*I *14742:X O *D sky130_fd_sc_hd__clkbuf_4
*CAP
1 *14885:act_in[11] 0.000623265
2 *781:DIODE 0.00010587
3 *14742:X 0.000432948
4 *454:32 0.000729134
5 *454:30 0.00785255
6 *454:28 0.0088721
7 *454:22 0.0028
8 *454:20 0.00180546
9 *454:18 0.0020334
10 *454:16 0.00200839
11 *454:14 0.00116479
12 *454:10 0.00159773
13 *781:DIODE *476:22 8.02925e-05
14 *781:DIODE *498:24 7.76035e-05
15 *14885:act_in[11] *14885:act_in[12] 0
16 *454:10 *509:16 0.000123077
17 *454:18 *476:12 0.00339325
18 *454:18 *476:14 1.34484e-05
19 *454:18 *520:10 0
20 *454:20 *476:12 7.65863e-06
21 *454:22 *455:18 0
22 *454:22 *456:14 0.00305605
23 *454:22 *476:14 0.00248564
24 *454:22 *498:16 0.000242752
25 *454:22 *520:10 0
26 *454:28 *476:14 9.03415e-07
27 *454:28 *498:16 2.31116e-05
28 *454:28 *498:24 0.000976497
29 *454:28 *520:10 0
30 *454:30 *498:24 0.0190248
31 *454:30 *520:10 0
32 *697:DIODE *454:10 3.22879e-05
33 *870:DIODE *454:14 0.000141052
34 *14885:act_in[10] *14885:act_in[11] 0
35 *14885:weight_in[13] *454:30 0
36 *14885:weight_in[14] *454:30 0
37 *14885:weight_in[4] *454:30 0
38 *14885:weight_in[6] *454:30 0.000310282
39 *14885:weight_in[7] *454:30 0
40 *14885:weight_in[9] *454:30 0
41 *14887:act_in[0] *454:18 8.53055e-05
42 *14887:act_in[1] *454:18 4.49163e-05
43 *14887:act_in[2] *454:18 1.70886e-05
44 *14887:act_in[3] *454:18 3.68514e-05
45 *14887:act_in[6] *454:22 0
46 *302:20 *454:30 0.0014259
47 *305:18 *454:30 0
48 *310:18 *454:30 0
49 *311:10 *454:30 0.00264804
50 *319:18 *454:30 0
51 *341:22 *454:14 0.000474924
52 *349:14 *454:14 0.000477634
53 *350:18 *454:18 0.000375332
54 *352:10 *454:10 0
55 *412:10 *454:10 0.00038628
*RES
1 *14742:X *454:10 48.6264 
2 *454:10 *454:14 36.1079 
3 *454:14 *454:16 15 
4 *454:16 *454:18 55.2554 
5 *454:18 *454:20 0.621429 
6 *454:20 *454:22 64.235 
7 *454:22 *454:28 26.5143 
8 *454:28 *454:30 249.69 
9 *454:30 *454:32 8 
10 *454:32 *781:DIODE 47.2531 
11 *454:32 *14885:act_in[11] 2.30347 
*END

*D_NET *455 0.0120859
*CONN
*I *14887:act_in[7] I *D processing_element
*I *14743:X O *D sky130_fd_sc_hd__buf_1
*CAP
1 *14887:act_in[7] 0.000568289
2 *14743:X 0.000930967
3 *455:18 0.00179197
4 *455:10 0.00200394
5 *455:8 0.00171123
6 *14887:act_in[7] *14887:act_in[8] 0
7 *455:18 *498:12 1.15146e-05
8 *455:18 *520:10 4.82745e-05
9 *687:DIODE *455:8 4.64608e-05
10 *14887:act_in[6] *14887:act_in[7] 0
11 *301:20 *455:10 0.000430644
12 *313:18 *455:10 0.00265456
13 *339:10 *455:10 0.000856088
14 *401:10 *455:10 0.000972896
15 *424:18 *455:8 5.90726e-05
16 *454:22 *455:18 0
*RES
1 *14743:X *455:8 48.6264 
2 *455:8 *455:10 35.0071 
3 *455:10 *455:18 44.1582 
4 *455:18 *14887:act_in[7] 10.0795 
*END

*D_NET *456 0.0126139
*CONN
*I *14887:act_in[8] I *D processing_element
*I *14744:X O *D sky130_fd_sc_hd__buf_1
*CAP
1 *14887:act_in[8] 0.000713783
2 *14744:X 0.00151497
3 *456:14 0.00148638
4 *456:10 0.000772599
5 *456:8 0.00151497
6 *14887:act_in[8] *14887:act_in[9] 0
7 *456:8 *498:22 3.16665e-05
8 *456:14 *498:16 0.00305336
9 *688:DIODE *456:8 7.43308e-05
10 *14887:act_in[15] *456:8 1.55097e-05
11 *14887:act_in[7] *14887:act_in[8] 0
12 *446:12 *456:8 0.000380246
13 *454:22 *456:14 0.00305605
*RES
1 *14744:X *456:8 46.0343 
2 *456:8 *456:10 15 
3 *456:10 *456:14 48.1132 
4 *456:14 *14887:act_in[8] 2.59093 
*END

*D_NET *457 0.0132364
*CONN
*I *14887:act_in[9] I *D processing_element
*I *14745:X O *D sky130_fd_sc_hd__buf_1
*CAP
1 *14887:act_in[9] 0.000698328
2 *14745:X 0
3 *457:12 0.00266259
4 *457:8 0.00289573
5 *457:6 0.000931468
6 *14887:act_in[9] *498:16 9.95159e-05
7 *14887:act_in[9] *520:10 0.000187252
8 *457:8 *509:16 0.000650002
9 *684:DIODE *457:12 0.000140939
10 *14887:act_in[10] *14887:act_in[9] 0
11 *14887:act_in[8] *14887:act_in[9] 0
12 *349:8 *457:8 0.00126131
13 *352:10 *457:8 0.000112322
14 *390:12 *457:8 0.00269725
15 *446:8 *457:8 0.000520622
16 *452:6 *457:12 0.000379021
*RES
1 *14745:X *457:6 38 
2 *457:6 *457:8 39.585 
3 *457:8 *457:12 38.9664 
4 *457:12 *14887:act_in[9] 27.8942 
*END

*D_NET *458 0.178451
*CONN
*I *895:DIODE I *D sky130_fd_sc_hd__diode_2
*I *14886:load_weight I *D processing_element
*I *821:DIODE I *D sky130_fd_sc_hd__diode_2
*I *14885:load_weight I *D processing_element
*I *796:DIODE I *D sky130_fd_sc_hd__diode_2
*I *14888:load_weight I *D processing_element
*I *14887:load_weight I *D processing_element
*I *865:DIODE I *D sky130_fd_sc_hd__diode_2
*I *14746:X O *D sky130_fd_sc_hd__clkbuf_16
*CAP
1 *895:DIODE 0
2 *14886:load_weight 0.00115159
3 *821:DIODE 0
4 *14885:load_weight 7.27106e-05
5 *796:DIODE 0
6 *14888:load_weight 0.000550354
7 *14887:load_weight 5.51494e-05
8 *865:DIODE 0
9 *14746:X 0
10 *458:109 0.00087652
11 *458:99 0.0122719
12 *458:79 0.0131138
13 *458:75 0.00859118
14 *458:73 0.00859277
15 *458:69 0.000741923
16 *458:46 0.000900483
17 *458:36 0.0110642
18 *458:24 0.0107228
19 *458:20 0.00207511
20 *458:14 0.00191052
21 *458:12 0.0161839
22 *458:10 0.0170382
23 *458:6 0.000854267
24 *14886:load_weight *529:84 0
25 *14888:load_weight *529:25 0.000253809
26 *458:12 *529:12 0.0076478
27 *458:20 *896:DIODE 2.33476e-05
28 *458:20 *596:19 0
29 *458:24 *896:DIODE 7.20663e-06
30 *458:24 *529:25 4.07923e-06
31 *458:36 *529:48 0.0204298
32 *458:46 *529:58 0
33 *458:75 *596:19 0
34 *458:99 *529:96 0.00736937
35 *458:109 *529:106 0
36 *14885:weight_in[0] *458:109 0
37 *14886:weight_in[0] *14886:load_weight 1.59585e-05
38 *14887:weight_in[0] *458:46 0
39 *14888:act_in[10] *458:75 0.000380379
40 *14888:weight_in[0] *14888:load_weight 0
41 *241:11 *458:99 0.000486375
42 *273:9 *458:36 0.000216652
43 *328:16 *458:99 2.89829e-05
44 *338:18 *14886:load_weight 5.09072e-05
45 *361:10 *458:75 0.0167935
46 *366:18 *458:75 0.0179754
*RES
1 *14746:X *458:6 38 
2 *458:6 *458:10 31.3436 
3 *458:10 *458:12 317.446 
4 *458:12 *458:14 15 
5 *458:14 *458:20 37.3582 
6 *458:20 *458:24 8.09893 
7 *458:24 *458:36 23.9292 
8 *458:36 *458:46 38.3433 
9 *458:46 *865:DIODE 23 
10 *458:36 *14887:load_weight 0.2184 
11 *458:24 *14888:load_weight 2.55173 
12 *458:20 *458:69 16.7296 
13 *458:69 *458:73 23.2443 
14 *458:73 *458:75 300.523 
15 *458:75 *458:79 23.2443 
16 *458:79 *458:99 48.1804 
17 *458:99 *458:109 36.8579 
18 *458:109 *796:DIODE 23 
19 *458:99 *14885:load_weight 0.281867 
20 *458:79 *821:DIODE 23 
21 *458:79 *14886:load_weight 38.4919 
22 *458:69 *895:DIODE 23 
*END

*D_NET *459 0.0107023
*CONN
*I *797:DIODE I *D sky130_fd_sc_hd__diode_2
*I *14885:psum_in[0] I *D processing_element
*I *14747:X O *D sky130_fd_sc_hd__buf_1
*CAP
1 *797:DIODE 0
2 *14885:psum_in[0] 0.000632662
3 *14747:X 2.34823e-05
4 *459:12 0.00272275
5 *459:10 0.00209009
6 *459:8 0.00193664
7 *459:6 0.00196013
8 *459:8 *483:12 0.000262889
9 *459:8 *486:12 0.000994783
10 *691:DIODE *459:8 7.88926e-05
*RES
1 *14747:X *459:6 23.4971 
2 *459:6 *459:8 40.165 
3 *459:8 *459:10 15 
4 *459:10 *459:12 40.9936 
5 *459:12 *14885:psum_in[0] 13.9821 
6 *459:12 *797:DIODE 38 
*END

*D_NET *460 0.00924598
*CONN
*I *14885:psum_in[10] I *D processing_element
*I *14748:X O *D sky130_fd_sc_hd__buf_1
*CAP
1 *14885:psum_in[10] 0.000793499
2 *14748:X 0
3 *460:14 0.00182031
4 *460:8 0.00310148
5 *460:6 0.00207467
6 *460:14 *461:14 0.000531529
7 *460:14 *493:12 0.000924495
*RES
1 *14748:X *460:6 38 
2 *460:6 *460:8 40.6414 
3 *460:8 *460:14 47.2964 
4 *460:14 *14885:psum_in[10] 16.7993 
*END

*D_NET *461 0.00761499
*CONN
*I *14885:psum_in[11] I *D processing_element
*I *14749:X O *D sky130_fd_sc_hd__buf_1
*CAP
1 *14885:psum_in[11] 0.000767964
2 *14749:X 0
3 *461:14 0.00128344
4 *461:8 0.00261445
5 *461:6 0.00209898
6 *461:8 *14885:psum_in[9] 2.76611e-06
7 *461:14 *462:14 0.000315852
8 *460:14 *461:14 0.000531529
*RES
1 *14749:X *461:6 38 
2 *461:6 *461:8 40.9936 
3 *461:8 *461:14 43.0086 
4 *461:14 *14885:psum_in[11] 16.4471 
*END

*D_NET *462 0.00748383
*CONN
*I *14885:psum_in[12] I *D processing_element
*I *14750:X O *D sky130_fd_sc_hd__buf_1
*CAP
1 *14885:psum_in[12] 0.000829822
2 *14750:X 0
3 *462:14 0.00150701
4 *462:8 0.00275185
5 *462:6 0.00207467
6 *14885:psum_in[12] *463:8 4.6318e-06
7 *461:14 *462:14 0.000315852
*RES
1 *14750:X *462:6 38 
2 *462:6 *462:8 40.6414 
3 *462:8 *462:14 39.6736 
4 *462:14 *14885:psum_in[12] 17.8971 
*END

*D_NET *463 0.00682921
*CONN
*I *14885:psum_in[13] I *D processing_element
*I *14751:X O *D sky130_fd_sc_hd__buf_1
*CAP
1 *14885:psum_in[13] 0.00078339
2 *14751:X 0
3 *463:14 0.00133928
4 *463:8 0.0026289
5 *463:6 0.00207301
6 *14885:psum_in[12] *463:8 4.6318e-06
*RES
1 *14751:X *463:6 38 
2 *463:6 *463:8 40.6414 
3 *463:8 *463:14 37.2914 
4 *463:14 *14885:psum_in[13] 16.7993 
*END

*D_NET *464 0.00631933
*CONN
*I *14885:psum_in[14] I *D processing_element
*I *14752:X O *D sky130_fd_sc_hd__buf_1
*CAP
1 *14885:psum_in[14] 0.000780761
2 *14752:X 0
3 *464:14 0.00108763
4 *464:8 0.0023789
5 *464:6 0.00207204
*RES
1 *14752:X *464:6 38 
2 *464:6 *464:8 40.6414 
3 *464:8 *464:14 33.9564 
4 *464:14 *14885:psum_in[14] 16.7993 
*END

*D_NET *465 0.0725913
*CONN
*I *14885:act_in[12] I *D processing_element
*I *782:DIODE I *D sky130_fd_sc_hd__diode_2
*I *14753:X O *D sky130_fd_sc_hd__clkbuf_4
*CAP
1 *14885:act_in[12] 0.000742617
2 *782:DIODE 0
3 *14753:X 2.86067e-05
4 *465:30 0.00137524
5 *465:28 0.00201948
6 *465:24 0.0023305
7 *465:20 0.00163725
8 *465:16 0.000759443
9 *465:10 0.00766345
10 *465:8 0.00762621
11 *14885:act_in[12] *14885:act_in[13] 0
12 *14885:act_in[12] *487:14 1.56662e-06
13 *465:30 *487:14 6.68973e-05
14 *708:DIODE *465:8 5.67058e-05
15 *14885:act_in[11] *14885:act_in[12] 0
16 *347:12 *465:20 0.00201616
17 *348:10 *465:28 0.000651985
18 *349:8 *465:10 0.0129121
19 *349:8 *465:20 0.000834812
20 *350:10 *465:28 0.000317504
21 *353:10 *465:20 0.00010403
22 *354:16 *465:10 0.00466764
23 *354:16 *465:20 0.000380246
24 *368:22 *465:28 0.000326131
25 *412:10 *465:10 0.0255265
26 *412:18 *465:20 0.000546186
27 *412:22 *465:28 0
*RES
1 *14753:X *465:8 38.6214 
2 *465:8 *465:10 334.681 
3 *465:10 *465:16 31.2014 
4 *465:16 *465:20 44.3729 
5 *465:20 *465:24 26.1029 
6 *465:24 *465:28 48.9507 
7 *465:28 *465:30 8.24429 
8 *465:30 *782:DIODE 23 
9 *465:30 *14885:act_in[12] 34.9242 
*END

*D_NET *466 0.00573088
*CONN
*I *14885:psum_in[15] I *D processing_element
*I *14754:X O *D sky130_fd_sc_hd__buf_1
*CAP
1 *14885:psum_in[15] 0.00190125
2 *14754:X 0
3 *466:10 0.00286544
4 *466:6 0.000964188
*RES
1 *14754:X *466:6 38 
2 *466:6 *466:10 18.8396 
3 *466:10 *14885:psum_in[15] 39.2225 
*END

*D_NET *467 0.00608979
*CONN
*I *14885:psum_in[16] I *D processing_element
*I *14755:X O *D sky130_fd_sc_hd__buf_1
*CAP
1 *14885:psum_in[16] 0.00290627
2 *14755:X 0.000110271
3 *467:8 0.00301654
4 *14755:A *467:8 5.67058e-05
*RES
1 *14755:X *467:8 40.0507 
2 *467:8 *14885:psum_in[16] 58.7043 
*END

*D_NET *468 0.00647742
*CONN
*I *14885:psum_in[17] I *D processing_element
*I *14756:X O *D sky130_fd_sc_hd__buf_1
*CAP
1 *14885:psum_in[17] 0.00290627
2 *14756:X 0.000304087
3 *468:8 0.00321036
4 *14756:A *468:8 5.67058e-05
*RES
1 *14756:X *468:8 43.3857 
2 *468:8 *14885:psum_in[17] 58.7043 
*END

*D_NET *469 0.0068809
*CONN
*I *14885:psum_in[18] I *D processing_element
*I *14757:X O *D sky130_fd_sc_hd__buf_1
*CAP
1 *14885:psum_in[18] 0.00290627
2 *14757:X 0.000505203
3 *469:8 0.00341147
4 *14757:A *469:8 5.79559e-05
*RES
1 *14757:X *469:8 46.7207 
2 *469:8 *14885:psum_in[18] 58.7043 
*END

*D_NET *470 0.00728285
*CONN
*I *14885:psum_in[19] I *D processing_element
*I *14758:X O *D sky130_fd_sc_hd__buf_1
*CAP
1 *14885:psum_in[19] 0.000108482
2 *14758:X 0.000551293
3 *470:10 0.00305869
4 *470:8 0.00350151
5 *470:10 *14885:psum_in[20] 0
6 *14757:A *470:8 6.17437e-06
7 *14758:A *470:8 5.67058e-05
*RES
1 *14758:X *470:8 47.6736 
2 *470:8 *470:10 58.7768 
3 *470:10 *14885:psum_in[19] 2.45464 
*END

*D_NET *471 0.011634
*CONN
*I *798:DIODE I *D sky130_fd_sc_hd__diode_2
*I *14885:psum_in[1] I *D processing_element
*I *14759:X O *D sky130_fd_sc_hd__buf_1
*CAP
1 *798:DIODE 0
2 *14885:psum_in[1] 0.000632662
3 *14759:X 2.34823e-05
4 *471:16 0.00292221
5 *471:14 0.00228955
6 *471:12 0.00238303
7 *471:6 0.00240651
8 *471:12 *489:6 1.14154e-05
9 *471:12 *489:10 0.00048975
10 *642:DIODE *471:12 9.90162e-05
11 *703:DIODE *471:12 0.000143655
12 *14771:A *471:12 5.67058e-05
13 *14774:A *471:12 5.67058e-05
14 *14776:A *471:12 5.67058e-05
15 *14777:A *471:12 6.26126e-05
*RES
1 *14759:X *471:6 23.4971 
2 *471:6 *471:12 45.095 
3 *471:12 *471:14 15 
4 *471:14 *471:16 44.1629 
5 *471:16 *14885:psum_in[1] 13.9821 
6 *471:16 *798:DIODE 38 
*END

*D_NET *472 0.0084944
*CONN
*I *14885:psum_in[20] I *D processing_element
*I *14760:X O *D sky130_fd_sc_hd__buf_1
*CAP
1 *14885:psum_in[20] 0.000779822
2 *14760:X 0
3 *472:14 0.00179723
4 *472:8 0.00309208
5 *472:6 0.00207467
6 *472:14 *473:14 0.000750602
7 *470:10 *14885:psum_in[20] 0
*RES
1 *14760:X *472:6 38 
2 *472:6 *472:8 40.6414 
3 *472:8 *472:14 45.3907 
4 *472:14 *14885:psum_in[20] 16.7993 
*END

*D_NET *473 0.00902428
*CONN
*I *14885:psum_in[21] I *D processing_element
*I *14761:X O *D sky130_fd_sc_hd__buf_1
*CAP
1 *14885:psum_in[21] 0.000767964
2 *14761:X 0
3 *473:14 0.00130992
4 *473:8 0.00264216
5 *473:6 0.0021002
6 *473:14 *474:12 0.00105232
7 *473:14 *475:12 0.000401106
8 *472:14 *473:14 0.000750602
*RES
1 *14761:X *473:6 38 
2 *473:6 *473:8 40.9936 
3 *473:8 *473:14 48.7257 
4 *473:14 *14885:psum_in[21] 16.4471 
*END

*D_NET *474 0.00902885
*CONN
*I *14885:psum_in[22] I *D processing_element
*I *14762:X O *D sky130_fd_sc_hd__buf_1
*CAP
1 *14885:psum_in[22] 0.000752539
2 *14762:X 0
3 *474:12 0.00137355
4 *474:8 0.00273819
5 *474:6 0.00211718
6 *474:8 *14885:psum_in[25] 3.47781e-05
7 *474:12 *475:12 0.000510747
8 *474:12 *477:14 0.000396238
9 *474:12 *478:12 5.3304e-05
10 *473:14 *474:12 0.00105232
*RES
1 *14762:X *474:6 38 
2 *474:6 *474:8 41.3457 
3 *474:8 *474:12 37.0607 
4 *474:12 *14885:psum_in[22] 31.095 
*END

*D_NET *475 0.0106944
*CONN
*I *14885:psum_in[23] I *D processing_element
*I *14763:X O *D sky130_fd_sc_hd__buf_1
*CAP
1 *14885:psum_in[23] 0.000803609
2 *14763:X 0
3 *475:12 0.00231347
4 *475:8 0.00358453
5 *475:6 0.00207467
6 *475:8 *479:12 0
7 *475:8 *480:20 0
8 *475:12 *478:12 0.00100624
9 *473:14 *475:12 0.000401106
10 *474:12 *475:12 0.000510747
*RES
1 *14763:X *475:6 38 
2 *475:6 *475:8 40.6414 
3 *475:8 *475:12 40.3957 
4 *475:12 *14885:psum_in[23] 31.7993 
*END

*D_NET *476 0.0721495
*CONN
*I *14885:act_in[13] I *D processing_element
*I *783:DIODE I *D sky130_fd_sc_hd__diode_2
*I *14764:X O *D sky130_fd_sc_hd__clkbuf_4
*CAP
1 *14885:act_in[13] 0.00074997
2 *783:DIODE 0
3 *14764:X 0.0018563
4 *476:22 0.00139474
5 *476:14 0.00773414
6 *476:12 0.00808069
7 *476:8 0.00099132
8 *476:6 0.0018563
9 *14885:act_in[13] *14885:act_in[14] 0
10 *476:14 *498:24 0.0198923
11 *476:22 *487:20 0.000300098
12 *476:22 *498:24 0.000782966
13 *719:DIODE *476:6 5.97984e-05
14 *779:DIODE *476:14 0.000126882
15 *781:DIODE *476:22 8.02925e-05
16 *14885:act_in[12] *14885:act_in[13] 0
17 *14885:weight_in[5] *476:14 0.00143986
18 *304:22 *476:14 0.000424816
19 *335:22 *476:14 0.000566949
20 *350:18 *476:12 0.00313206
21 *355:18 *476:12 0
22 *355:18 *476:14 0.00768473
23 *355:18 *476:22 0.00192773
24 *357:22 *476:14 0.000355699
25 *435:12 *476:14 0.00485867
26 *452:12 *476:14 0.00195231
27 *454:18 *476:12 0.00339325
28 *454:18 *476:14 1.34484e-05
29 *454:20 *476:12 7.65863e-06
30 *454:22 *476:14 0.00248564
31 *454:28 *476:14 9.03415e-07
*RES
1 *14764:X *476:6 44.1079 
2 *476:6 *476:8 15 
3 *476:8 *476:12 45.7889 
4 *476:12 *476:14 325.898 
5 *476:14 *476:22 41.5454 
6 *476:22 *783:DIODE 23 
7 *476:22 *14885:act_in[13] 34.9242 
*END

*D_NET *477 0.00974872
*CONN
*I *14885:psum_in[24] I *D processing_element
*I *14765:X O *D sky130_fd_sc_hd__buf_1
*CAP
1 *14885:psum_in[24] 0.000721689
2 *14765:X 0.000208148
3 *477:14 0.00182221
4 *477:10 0.00333594
5 *477:8 0.00244356
6 *477:8 *479:8 0.000178383
7 *477:10 *480:20 0
8 *477:14 *478:12 0.000585842
9 *14765:A *477:8 5.67058e-05
10 *474:12 *477:14 0.000396238
*RES
1 *14765:X *477:8 42.9093 
2 *477:8 *477:10 43.4586 
3 *477:10 *477:14 38.9664 
4 *477:14 *14885:psum_in[24] 30.3907 
*END

*D_NET *478 0.0103879
*CONN
*I *14885:psum_in[25] I *D processing_element
*I *14766:X O *D sky130_fd_sc_hd__buf_1
*CAP
1 *14885:psum_in[25] 0.000779601
2 *14766:X 0
3 *478:12 0.0022335
4 *478:8 0.00357426
5 *478:6 0.00212036
6 *478:8 *482:18 0
7 *478:8 *484:20 0
8 *474:8 *14885:psum_in[25] 3.47781e-05
9 *474:12 *478:12 5.3304e-05
10 *475:12 *478:12 0.00100624
11 *477:14 *478:12 0.000585842
*RES
1 *14766:X *478:6 38 
2 *478:6 *478:8 40.9936 
3 *478:8 *478:12 48.0186 
4 *478:12 *14885:psum_in[25] 31.4471 
*END

*D_NET *479 0.0104011
*CONN
*I *799:DIODE I *D sky130_fd_sc_hd__diode_2
*I *14885:psum_in[26] I *D processing_element
*I *14767:X O *D sky130_fd_sc_hd__buf_1
*CAP
1 *799:DIODE 0
2 *14885:psum_in[26] 0.000632662
3 *14767:X 2.34823e-05
4 *479:12 0.00289664
5 *479:10 0.00226398
6 *479:8 0.00189726
7 *479:6 0.00192075
8 *710:DIODE *479:8 0.000130423
9 *14763:A *479:8 0.000143655
10 *14765:A *479:8 2.65879e-05
11 *14767:A *479:8 5.67058e-05
12 *54:9 *479:8 0.000230604
13 *475:8 *479:12 0
14 *477:8 *479:8 0.000178383
*RES
1 *14767:X *479:6 23.4971 
2 *479:6 *479:8 35.4007 
3 *479:8 *479:10 15 
4 *479:10 *479:12 43.8107 
5 *479:12 *14885:psum_in[26] 13.9821 
6 *479:12 *799:DIODE 38 
*END

*D_NET *480 0.0116836
*CONN
*I *800:DIODE I *D sky130_fd_sc_hd__diode_2
*I *14885:psum_in[27] I *D processing_element
*I *14768:X O *D sky130_fd_sc_hd__buf_1
*CAP
1 *800:DIODE 0
2 *14885:psum_in[27] 0.000632662
3 *14768:X 0.000598361
4 *480:20 0.00278919
5 *480:18 0.00215653
6 *480:16 0.0013217
7 *480:10 0.00192006
8 *480:16 *481:12 0.0001809
9 *480:16 *482:14 0.00131057
10 *480:16 *484:18 0.000661952
11 *14767:A *480:10 5.50106e-05
12 *14768:A *480:10 5.67058e-05
13 *475:8 *480:20 0
14 *477:10 *480:20 0
*RES
1 *14768:X *480:10 48.6471 
2 *480:10 *480:16 45.6364 
3 *480:16 *480:18 15 
4 *480:18 *480:20 42.05 
5 *480:20 *14885:psum_in[27] 13.9821 
6 *480:20 *800:DIODE 38 
*END

*D_NET *481 0.0134833
*CONN
*I *801:DIODE I *D sky130_fd_sc_hd__diode_2
*I *14885:psum_in[28] I *D processing_element
*I *14769:X O *D sky130_fd_sc_hd__buf_1
*CAP
1 *801:DIODE 0
2 *14885:psum_in[28] 0.000659883
3 *14769:X 0.000187349
4 *481:16 0.00274466
5 *481:14 0.00208478
6 *481:12 0.00252291
7 *481:10 0.00252291
8 *481:8 0.000187349
9 *481:8 *484:14 0
10 *481:12 *482:14 0.000513332
11 *481:12 *485:14 0.00187924
12 *480:16 *481:12 0.0001809
*RES
1 *14769:X *481:8 40.9621 
2 *481:8 *481:10 15 
3 *481:10 *481:12 41.5943 
4 *481:12 *481:14 15 
5 *481:14 *481:16 40.6414 
6 *481:16 *14885:psum_in[28] 14.6036 
7 *481:16 *801:DIODE 38 
*END

*D_NET *482 0.0123241
*CONN
*I *802:DIODE I *D sky130_fd_sc_hd__diode_2
*I *14885:psum_in[29] I *D processing_element
*I *14770:X O *D sky130_fd_sc_hd__buf_1
*CAP
1 *802:DIODE 0
2 *14885:psum_in[29] 0.000555536
3 *14770:X 8.17907e-05
4 *482:18 0.00277379
5 *482:16 0.00221826
6 *482:14 0.000933201
7 *482:12 0.000973317
8 *482:8 0.000121906
9 *482:14 *484:18 0.00123325
10 *482:14 *485:14 0.00160919
11 *478:8 *482:18 0
12 *480:16 *482:14 0.00131057
13 *481:12 *482:14 0.000513332
*RES
1 *14770:X *482:8 39.2014 
2 *482:8 *482:12 15.8493 
3 *482:12 *482:14 45.4057 
4 *482:14 *482:16 15 
5 *482:16 *482:18 43.4586 
6 *482:18 *14885:psum_in[29] 12.2214 
7 *482:18 *802:DIODE 38 
*END

*D_NET *483 0.0139847
*CONN
*I *803:DIODE I *D sky130_fd_sc_hd__diode_2
*I *14885:psum_in[2] I *D processing_element
*I *14771:X O *D sky130_fd_sc_hd__buf_1
*CAP
1 *803:DIODE 0
2 *14885:psum_in[2] 0.000642742
3 *14771:X 7.99533e-05
4 *483:16 0.00281158
5 *483:14 0.00216884
6 *483:12 0.00265281
7 *483:10 0.00265281
8 *483:8 7.99533e-05
9 *14885:psum_in[2] *490:8 0
10 *483:12 *486:12 0.000541686
11 *483:12 *488:16 0.00209141
12 *483:16 *490:8 0
13 *459:8 *483:12 0.000262889
*RES
1 *14771:X *483:8 39.2014 
2 *483:8 *483:10 15 
3 *483:10 *483:12 43.9764 
4 *483:12 *483:14 15 
5 *483:14 *483:16 42.4021 
6 *483:16 *14885:psum_in[2] 13.9821 
7 *483:16 *803:DIODE 38 
*END

*D_NET *484 0.0137746
*CONN
*I *804:DIODE I *D sky130_fd_sc_hd__diode_2
*I *14885:psum_in[30] I *D processing_element
*I *14772:X O *D sky130_fd_sc_hd__buf_1
*CAP
1 *804:DIODE 0
2 *14885:psum_in[30] 0.000555536
3 *14772:X 0.00100386
4 *484:20 0.00281475
5 *484:18 0.00411242
6 *484:14 0.00195571
7 *484:8 0.00110638
8 *714:DIODE *484:8 0.000130423
9 *14772:A *484:8 5.67058e-05
10 *58:9 *484:8 0.000143655
11 *478:8 *484:20 0
12 *480:16 *484:18 0.000661952
13 *481:8 *484:14 0
14 *482:14 *484:18 0.00123325
*RES
1 *14772:X *484:8 41.27 
2 *484:8 *484:14 31.5536 
3 *484:14 *484:18 46.1129 
4 *484:18 *484:20 44.1629 
5 *484:20 *14885:psum_in[30] 12.2214 
6 *484:20 *804:DIODE 38 
*END

*D_NET *485 0.0131843
*CONN
*I *805:DIODE I *D sky130_fd_sc_hd__diode_2
*I *14885:psum_in[31] I *D processing_element
*I *14773:X O *D sky130_fd_sc_hd__buf_1
*CAP
1 *805:DIODE 0
2 *14885:psum_in[31] 0.000555536
3 *14773:X 8.17907e-05
4 *485:18 0.00273289
5 *485:16 0.00217736
6 *485:14 0.00195987
7 *485:12 0.00203326
8 *485:8 0.000155173
9 *481:12 *485:14 0.00187924
10 *482:14 *485:14 0.00160919
*RES
1 *14773:X *485:8 39.2014 
2 *485:8 *485:12 16.5536 
3 *485:12 *485:14 52.0757 
4 *485:14 *485:16 15 
5 *485:16 *485:18 42.7543 
6 *485:18 *14885:psum_in[31] 12.2214 
7 *485:18 *805:DIODE 38 
*END

*D_NET *486 0.012212
*CONN
*I *806:DIODE I *D sky130_fd_sc_hd__diode_2
*I *14885:psum_in[3] I *D processing_element
*I *14774:X O *D sky130_fd_sc_hd__buf_1
*CAP
1 *806:DIODE 0
2 *14885:psum_in[3] 0.000642742
3 *14774:X 0.000120884
4 *486:16 0.00231086
5 *486:14 0.00166812
6 *486:12 0.00100978
7 *486:10 0.00100978
8 *486:8 0.000120884
9 *486:12 *488:16 0.00274262
10 *486:16 *491:8 0.00104982
11 *459:8 *486:12 0.000994783
12 *483:12 *486:12 0.000541686
*RES
1 *14774:X *486:8 39.9057 
2 *486:8 *486:10 15 
3 *486:10 *486:12 40.6414 
4 *486:12 *486:14 15 
5 *486:14 *486:16 41.6979 
6 *486:16 *14885:psum_in[3] 13.9821 
7 *486:16 *806:DIODE 38 
*END

*D_NET *487 0.0690645
*CONN
*I *14885:act_in[14] I *D processing_element
*I *784:DIODE I *D sky130_fd_sc_hd__diode_2
*I *14775:X O *D sky130_fd_sc_hd__clkbuf_4
*CAP
1 *14885:act_in[14] 0.000758904
2 *784:DIODE 0
3 *14775:X 0.000193678
4 *487:20 0.000976166
5 *487:14 0.00209225
6 *487:10 0.014691
7 *487:8 0.0130097
8 *14885:act_in[14] *14885:act_in[15] 0
9 *487:10 *509:16 0.00504943
10 *487:20 *498:24 0.00072904
11 *730:DIODE *487:8 1.57322e-05
12 *14885:act_in[12] *487:14 1.56662e-06
13 *14885:act_in[13] *14885:act_in[14] 0
14 *8:13 *487:8 4.67813e-05
15 *20:15 *487:10 0.000133892
16 *23:13 *487:10 1.28274e-05
17 *27:15 *487:10 4.60289e-05
18 *30:13 *487:10 1.28274e-05
19 *171:13 *487:10 6.40209e-05
20 *173:13 *487:10 6.40209e-05
21 *178:15 *487:10 0.000133892
22 *210:13 *487:10 5.37822e-05
23 *212:13 *487:10 7.42596e-05
24 *313:10 *487:10 0.00235914
25 *352:10 *487:10 0.001127
26 *355:18 *487:20 0.000222091
27 *357:10 *487:10 0.0268296
28 *465:30 *487:14 6.68973e-05
29 *476:22 *487:20 0.000300098
*RES
1 *14775:X *487:8 40.5271 
2 *487:8 *487:10 380.459 
3 *487:10 *487:14 38.49 
4 *487:14 *487:20 39.6529 
5 *487:20 *784:DIODE 23 
6 *487:20 *14885:act_in[14] 34.9242 
*END

*D_NET *488 0.0126912
*CONN
*I *807:DIODE I *D sky130_fd_sc_hd__diode_2
*I *14885:psum_in[4] I *D processing_element
*I *14776:X O *D sky130_fd_sc_hd__buf_1
*CAP
1 *807:DIODE 0
2 *14885:psum_in[4] 0.000642742
3 *14776:X 0.000105488
4 *488:20 0.00274513
5 *488:18 0.00210238
6 *488:16 0.001078
7 *488:10 0.001078
8 *488:8 0.000105488
9 *488:20 *492:8 0
10 *483:12 *488:16 0.00209141
11 *486:12 *488:16 0.00274262
*RES
1 *14776:X *488:8 39.5536 
2 *488:8 *488:10 15 
3 *488:10 *488:16 38.6529 
4 *488:16 *488:18 15 
5 *488:18 *488:20 40.9936 
6 *488:20 *14885:psum_in[4] 13.9821 
7 *488:20 *807:DIODE 38 
*END

*D_NET *489 0.0103815
*CONN
*I *14885:psum_in[5] I *D processing_element
*I *14777:X O *D sky130_fd_sc_hd__buf_1
*CAP
1 *14885:psum_in[5] 0.00289026
2 *14777:X 2.0995e-05
3 *489:10 0.00472544
4 *489:6 0.00185617
5 *14885:psum_in[5] *492:8 0
6 *722:DIODE *489:10 0.000217372
7 *14779:A *489:10 5.67058e-05
8 *14780:A *489:10 5.67058e-05
9 *65:9 *489:10 5.67058e-05
10 *471:12 *489:6 1.14154e-05
11 *471:12 *489:10 0.00048975
*RES
1 *14777:X *489:6 23.4971 
2 *489:6 *489:10 48.9714 
3 *489:10 *14885:psum_in[5] 57.6479 
*END

*D_NET *490 0.00947249
*CONN
*I *14885:psum_in[6] I *D processing_element
*I *14778:X O *D sky130_fd_sc_hd__buf_1
*CAP
1 *14885:psum_in[6] 0.000624373
2 *14778:X 0
3 *490:12 0.00247226
4 *490:8 0.00411187
5 *490:6 0.00226398
6 *14885:psum_in[2] *490:8 0
7 *483:16 *490:8 0
*RES
1 *14778:X *490:6 38 
2 *490:6 *490:8 43.8107 
3 *490:8 *490:12 45.6364 
4 *490:12 *14885:psum_in[6] 28.63 
*END

*D_NET *491 0.0101933
*CONN
*I *14885:psum_in[7] I *D processing_element
*I *14779:X O *D sky130_fd_sc_hd__buf_1
*CAP
1 *14885:psum_in[7] 0.000706293
2 *14779:X 0
3 *491:12 0.00255554
4 *491:8 0.00355829
5 *491:6 0.00170904
6 *491:12 *492:12 0.000614318
7 *486:16 *491:8 0.00104982
*RES
1 *14779:X *491:6 38 
2 *491:6 *491:8 42.4021 
3 *491:8 *491:12 42.3014 
4 *491:12 *14885:psum_in[7] 30.0386 
*END

*D_NET *492 0.00907362
*CONN
*I *14885:psum_in[8] I *D processing_element
*I *14780:X O *D sky130_fd_sc_hd__buf_1
*CAP
1 *14885:psum_in[8] 0.000752539
2 *14780:X 0
3 *492:12 0.00150974
4 *492:8 0.0028627
5 *492:6 0.0021055
6 *492:12 *493:12 0.00122882
7 *14885:psum_in[5] *492:8 0
8 *488:20 *492:8 0
9 *491:12 *492:12 0.000614318
*RES
1 *14780:X *492:6 38 
2 *492:6 *492:8 41.3457 
3 *492:8 *492:12 38.9664 
4 *492:12 *14885:psum_in[8] 31.095 
*END

*D_NET *493 0.0092233
*CONN
*I *14885:psum_in[9] I *D processing_element
*I *14781:X O *D sky130_fd_sc_hd__buf_1
*CAP
1 *14885:psum_in[9] 0.000766739
2 *14781:X 0
3 *493:12 0.00144355
4 *493:8 0.00276687
5 *493:6 0.00209006
6 *460:14 *493:12 0.000924495
7 *461:8 *14885:psum_in[9] 2.76611e-06
8 *492:12 *493:12 0.00122882
*RES
1 *14781:X *493:6 38 
2 *493:6 *493:8 40.9936 
3 *493:8 *493:12 35.6314 
4 *493:12 *14885:psum_in[9] 31.4471 
*END

*D_NET *494 0.00660763
*CONN
*I *14886:psum_in[0] I *D processing_element
*I *14782:X O *D sky130_fd_sc_hd__buf_1
*CAP
1 *14886:psum_in[0] 7.90936e-05
2 *14782:X 0.00041032
3 *494:10 0.00289349
4 *494:8 0.00322472
*RES
1 *14782:X *494:8 43.3857 
2 *494:8 *494:10 55.9596 
3 *494:10 *14886:psum_in[0] 1.86429 
*END

*D_NET *495 0.0101645
*CONN
*I *14886:psum_in[10] I *D processing_element
*I *14783:X O *D sky130_fd_sc_hd__buf_1
*CAP
1 *14886:psum_in[10] 0.000848012
2 *14783:X 0.000493281
3 *495:16 0.00154173
4 *495:10 0.00284202
5 *495:8 0.00264158
6 *495:8 *499:8 0.00053323
7 *495:10 *499:12 0
8 *495:16 *496:20 0.000255829
9 *495:16 *528:16 0.00100885
*RES
1 *14783:X *495:8 45.7679 
2 *495:8 *495:10 41.6979 
3 *495:10 *495:16 48.2493 
4 *495:16 *14886:psum_in[10] 17.5554 
*END

*D_NET *496 0.0118539
*CONN
*I *14886:psum_in[11] I *D processing_element
*I *14784:X O *D sky130_fd_sc_hd__buf_1
*CAP
1 *14886:psum_in[11] 0.000914462
2 *14784:X 0.000553756
3 *496:20 0.00217831
4 *496:14 0.00314595
5 *496:8 0.00243587
6 *14886:psum_in[11] *527:8 0
7 *14886:psum_in[11] *528:10 0
8 *496:8 *499:8 0.000881026
9 *496:14 *500:24 0.00128895
10 *496:20 *528:16 0.00019975
11 *495:16 *496:20 0.000255829
*RES
1 *14784:X *496:8 47.6736 
2 *496:8 *496:14 42.3607 
3 *496:14 *496:20 48.2493 
4 *496:20 *14886:psum_in[11] 18.6118 
*END

*D_NET *497 0.0121297
*CONN
*I *822:DIODE I *D sky130_fd_sc_hd__diode_2
*I *14886:psum_in[12] I *D processing_element
*I *14785:X O *D sky130_fd_sc_hd__buf_1
*CAP
1 *822:DIODE 0
2 *14886:psum_in[12] 0.000681558
3 *14785:X 7.99533e-05
4 *497:16 0.00285353
5 *497:14 0.00217197
6 *497:12 0.00223436
7 *497:8 0.00231431
8 *497:12 *500:20 0.00179399
9 *497:16 *528:10 0
*RES
1 *14785:X *497:8 39.2014 
2 *497:8 *497:12 48.9714 
3 *497:12 *497:14 15 
4 *497:14 *497:16 42.4021 
5 *497:16 *14886:psum_in[12] 14.5104 
6 *497:16 *822:DIODE 38 
*END

*D_NET *498 0.0727186
*CONN
*I *14885:act_in[15] I *D processing_element
*I *785:DIODE I *D sky130_fd_sc_hd__diode_2
*I *14786:X O *D sky130_fd_sc_hd__clkbuf_4
*CAP
1 *14885:act_in[15] 0.000707841
2 *785:DIODE 5.45698e-05
3 *14786:X 0
4 *498:26 0.000762411
5 *498:24 0.00621777
6 *498:22 0.00629244
7 *498:16 0.00102504
8 *498:14 0.000950368
9 *498:12 0.00209081
10 *498:8 0.00336635
11 *498:6 0.00127554
12 *498:8 *509:16 0.000713608
13 *498:16 *520:10 0.00117236
14 *781:DIODE *498:24 7.76035e-05
15 *14885:act_in[14] *14885:act_in[15] 0
16 *14887:act_in[10] *498:16 7.00034e-05
17 *14887:act_in[12] *498:16 4.04908e-05
18 *14887:act_in[15] *498:22 0.000135037
19 *14887:act_in[9] *498:16 9.95159e-05
20 *349:8 *498:8 0.00166097
21 *352:10 *498:8 0.00110325
22 *355:18 *498:24 0.000123586
23 *401:18 *498:16 1.09783e-05
24 *454:22 *498:16 0.000242752
25 *454:28 *498:16 2.31116e-05
26 *454:28 *498:24 0.000976497
27 *454:30 *498:24 0.0190248
28 *455:18 *498:12 1.15146e-05
29 *456:8 *498:22 3.16665e-05
30 *456:14 *498:16 0.00305336
31 *476:14 *498:24 0.0198923
32 *476:22 *498:24 0.000782966
33 *487:20 *498:24 0.00072904
*RES
1 *14786:X *498:6 38 
2 *498:6 *498:8 43.4586 
3 *498:8 *498:12 38.0136 
4 *498:12 *498:14 15 
5 *498:14 *498:16 46.6279 
6 *498:16 *498:22 31.5743 
7 *498:22 *498:24 297.354 
8 *498:24 *498:26 15 
9 *498:26 *785:DIODE 23.6214 
10 *498:26 *14885:act_in[15] 34.4478 
*END

*D_NET *499 0.0112152
*CONN
*I *823:DIODE I *D sky130_fd_sc_hd__diode_2
*I *14886:psum_in[13] I *D processing_element
*I *14787:X O *D sky130_fd_sc_hd__buf_1
*CAP
1 *823:DIODE 0
2 *14886:psum_in[13] 0.000681558
3 *14787:X 2.34823e-05
4 *499:12 0.00294915
5 *499:10 0.0022676
6 *499:8 0.00161877
7 *499:6 0.00164225
8 *728:DIODE *499:8 0.000130423
9 *14783:A *499:8 0.000143655
10 *14785:A *499:8 0.000143655
11 *14787:A *499:8 5.67058e-05
12 *103:9 *499:8 0.000143655
13 *495:8 *499:8 0.00053323
14 *495:10 *499:12 0
15 *496:8 *499:8 0.000881026
*RES
1 *14787:X *499:6 23.4971 
2 *499:6 *499:8 37.3064 
3 *499:8 *499:10 15 
4 *499:10 *499:12 43.8107 
5 *499:12 *14886:psum_in[13] 14.5104 
6 *499:12 *823:DIODE 38 
*END

*D_NET *500 0.013955
*CONN
*I *824:DIODE I *D sky130_fd_sc_hd__diode_2
*I *14886:psum_in[14] I *D processing_element
*I *14788:X O *D sky130_fd_sc_hd__buf_1
*CAP
1 *824:DIODE 0
2 *14886:psum_in[14] 0.000681558
3 *14788:X 0.000665591
4 *500:24 0.00253778
5 *500:22 0.00185622
6 *500:20 0.000821806
7 *500:14 0.0014874
8 *500:14 *501:10 0.000499653
9 *500:20 *502:12 0.00148707
10 *500:20 *503:12 0.000748901
11 *14787:A *500:14 2.93845e-05
12 *14788:A *500:14 5.67058e-05
13 *496:14 *500:24 0.00128895
14 *497:12 *500:20 0.00179399
*RES
1 *14788:X *500:14 49.2893 
2 *500:14 *500:20 47.19 
3 *500:20 *500:22 15 
4 *500:22 *500:24 42.05 
5 *500:24 *14886:psum_in[14] 14.5104 
6 *500:24 *824:DIODE 38 
*END

*D_NET *501 0.0117085
*CONN
*I *825:DIODE I *D sky130_fd_sc_hd__diode_2
*I *14886:psum_in[15] I *D processing_element
*I *14789:X O *D sky130_fd_sc_hd__buf_1
*CAP
1 *825:DIODE 0
2 *14886:psum_in[15] 0.000807943
3 *14789:X 0.000721421
4 *501:20 0.0022893
5 *501:14 0.00376802
6 *501:12 0.00228666
7 *501:10 0.000721421
8 *501:10 *505:28 0.000176547
9 *501:10 *507:16 0.000301973
10 *501:14 *14886:psum_in[19] 0
11 *501:14 *505:32 0
12 *14788:A *501:10 7.88926e-05
13 *14789:A *501:10 5.67058e-05
14 *500:14 *501:10 0.000499653
*RES
1 *14789:X *501:10 41.6429 
2 *501:10 *501:12 15 
3 *501:12 *501:14 43.8107 
4 *501:14 *501:20 39.94 
5 *501:20 *14886:psum_in[15] 31.5404 
6 *501:20 *825:DIODE 23 
*END

*D_NET *502 0.0132414
*CONN
*I *826:DIODE I *D sky130_fd_sc_hd__diode_2
*I *14886:psum_in[16] I *D processing_element
*I *14790:X O *D sky130_fd_sc_hd__buf_1
*CAP
1 *826:DIODE 0
2 *14886:psum_in[16] 0.000691638
3 *14790:X 0.00021323
4 *502:16 0.00281258
5 *502:14 0.00212094
6 *502:12 0.00109248
7 *502:10 0.00109248
8 *502:8 0.00021323
9 *502:12 *503:12 0.000992457
10 *502:12 *504:12 0.00103211
11 *502:12 *508:22 0.00105514
12 *502:12 *510:14 0.000405348
13 *108:15 *502:8 3.27399e-05
14 *500:20 *502:12 0.00148707
*RES
1 *14790:X *502:8 41.3143 
2 *502:8 *502:10 15 
3 *502:10 *502:12 47.3114 
4 *502:12 *502:14 15 
5 *502:14 *502:16 41.6979 
6 *502:16 *14886:psum_in[16] 14.5104 
7 *502:16 *826:DIODE 38 
*END

*D_NET *503 0.0155419
*CONN
*I *827:DIODE I *D sky130_fd_sc_hd__diode_2
*I *14886:psum_in[17] I *D processing_element
*I *14791:X O *D sky130_fd_sc_hd__buf_1
*CAP
1 *827:DIODE 0
2 *14886:psum_in[17] 0.00073277
3 *14791:X 0.000192531
4 *503:16 0.00290478
5 *503:14 0.00217201
6 *503:12 0.00298347
7 *503:10 0.00298347
8 *503:8 0.000192531
9 *503:12 *508:16 0.000485591
10 *503:12 *508:22 0.00109834
11 *503:12 *512:24 5.50106e-05
12 *500:20 *503:12 0.000748901
13 *502:12 *503:12 0.000992457
*RES
1 *14791:X *503:8 40.61 
2 *503:8 *503:10 15 
3 *503:10 *503:12 49.6936 
4 *503:12 *503:14 15 
5 *503:14 *503:16 42.4021 
6 *503:16 *14886:psum_in[17] 15.3182 
7 *503:16 *827:DIODE 38 
*END

*D_NET *504 0.0157424
*CONN
*I *828:DIODE I *D sky130_fd_sc_hd__diode_2
*I *14886:psum_in[18] I *D processing_element
*I *14792:X O *D sky130_fd_sc_hd__buf_1
*CAP
1 *828:DIODE 0
2 *14886:psum_in[18] 0.000691638
3 *14792:X 0.000205238
4 *504:16 0.00276633
5 *504:14 0.0020747
6 *504:12 0.00334723
7 *504:10 0.00334723
8 *504:8 0.000205238
9 *504:8 *505:18 1.14452e-05
10 *504:8 *514:40 0
11 *504:12 *510:14 0.000312864
12 *504:12 *511:14 0.0017484
13 *502:12 *504:12 0.00103211
*RES
1 *14792:X *504:8 40.9621 
2 *504:8 *504:10 15 
3 *504:10 *504:12 53.9814 
4 *504:12 *504:14 15 
5 *504:14 *504:16 40.6414 
6 *504:16 *14886:psum_in[18] 14.5104 
7 *504:16 *828:DIODE 38 
*END

*D_NET *505 0.0160301
*CONN
*I *829:DIODE I *D sky130_fd_sc_hd__diode_2
*I *14886:psum_in[19] I *D processing_element
*I *14793:X O *D sky130_fd_sc_hd__buf_1
*CAP
1 *829:DIODE 0
2 *14886:psum_in[19] 0.000681558
3 *14793:X 0.000580117
4 *505:32 0.00302166
5 *505:30 0.0023401
6 *505:28 0.000317347
7 *505:20 0.0036733
8 *505:18 0.00352148
9 *505:14 0.000745645
10 *505:14 *507:14 0.000414107
11 *505:14 *507:16 0.000421941
12 *505:18 *514:40 0
13 *14788:A *505:28 1.01436e-05
14 *14788:A *505:32 0
15 *106:5 *505:28 7.39034e-05
16 *110:7 *505:18 4.08537e-05
17 *501:10 *505:28 0.000176547
18 *501:14 *14886:psum_in[19] 0
19 *501:14 *505:32 0
20 *504:8 *505:18 1.14452e-05
*RES
1 *14793:X *505:14 49.2893 
2 *505:14 *505:18 17.9621 
3 *505:18 *505:20 43.5 
4 *505:20 *505:28 35.1579 
5 *505:28 *505:30 15 
6 *505:30 *505:32 45.2193 
7 *505:32 *14886:psum_in[19] 14.5104 
8 *505:32 *829:DIODE 38 
*END

*D_NET *506 0.00612536
*CONN
*I *14886:psum_in[1] I *D processing_element
*I *14794:X O *D sky130_fd_sc_hd__buf_1
*CAP
1 *14886:psum_in[1] 7.95427e-05
2 *14794:X 0.000168343
3 *506:10 0.00289434
4 *506:8 0.00298314
*RES
1 *14794:X *506:8 40.0507 
2 *506:8 *506:10 55.9596 
3 *506:10 *14886:psum_in[1] 1.86429 
*END

*D_NET *507 0.014689
*CONN
*I *830:DIODE I *D sky130_fd_sc_hd__diode_2
*I *14886:psum_in[20] I *D processing_element
*I *14795:X O *D sky130_fd_sc_hd__dlymetal6s2s_1
*CAP
1 *830:DIODE 0
2 *14886:psum_in[20] 0.000681558
3 *14795:X 0.000277875
4 *507:20 0.00294554
5 *507:18 0.00226398
6 *507:16 0.0022915
7 *507:14 0.00256937
8 *507:14 *514:34 0.000157298
9 *507:14 *514:38 0.000945193
10 *507:14 *515:8 0.000881026
11 *507:16 *514:38 8.37357e-05
12 *734:DIODE *507:16 0.000145238
13 *14789:A *507:16 2.65879e-05
14 *14791:A *507:16 0.000141052
15 *14792:A *507:16 0.000141052
16 *501:10 *507:16 0.000301973
17 *505:14 *507:14 0.000414107
18 *505:14 *507:16 0.000421941
*RES
1 *14795:X *507:14 40.2654 
2 *507:14 *507:16 44.6911 
3 *507:16 *507:18 15 
4 *507:18 *507:20 43.8107 
5 *507:20 *14886:psum_in[20] 14.5104 
6 *507:20 *830:DIODE 38 
*END

*D_NET *508 0.0194785
*CONN
*I *831:DIODE I *D sky130_fd_sc_hd__diode_2
*I *14886:psum_in[21] I *D processing_element
*I *14796:X O *D sky130_fd_sc_hd__dlymetal6s2s_1
*CAP
1 *831:DIODE 0
2 *14886:psum_in[21] 0.000681558
3 *14796:X 0.00011655
4 *508:24 0.00283815
5 *508:22 0.00233235
6 *508:16 0.000874143
7 *508:14 0.000729995
8 *508:8 0.000148163
9 *508:8 *512:22 8.95629e-05
10 *508:14 *510:14 1.2377e-05
11 *508:14 *513:16 3.32677e-05
12 *508:16 *510:14 0.00493834
13 *508:16 *512:24 0.00399818
14 *508:16 *513:16 2.95972e-05
15 *508:22 *510:14 1.71761e-05
16 *502:12 *508:22 0.00105514
17 *503:12 *508:16 0.000485591
18 *503:12 *508:22 0.00109834
*RES
1 *14796:X *508:8 40.2579 
2 *508:8 *508:14 15.8804 
3 *508:14 *508:16 54.2196 
4 *508:16 *508:22 27.5529 
5 *508:22 *508:24 42.05 
6 *508:24 *14886:psum_in[21] 14.5104 
7 *508:24 *831:DIODE 38 
*END

*D_NET *509 0.0802229
*CONN
*I *14885:act_in[1] I *D processing_element
*I *786:DIODE I *D sky130_fd_sc_hd__diode_2
*I *14797:X O *D sky130_fd_sc_hd__clkbuf_4
*CAP
1 *14885:act_in[1] 0.000795941
2 *786:DIODE 0
3 *14797:X 0.000154898
4 *509:32 0.00150647
5 *509:26 0.00188047
6 *509:16 0.0161887
7 *509:14 0.0150187
8 *509:12 0.000154898
9 *14885:act_in[1] *14885:act_in[2] 0
10 *509:16 *530:8 0.00102471
11 *14885:act_in[0] *14885:act_in[1] 0
12 *301:12 *509:12 0.000183164
13 *301:12 *509:16 0.00172297
14 *304:10 *509:16 0.000164797
15 *304:14 *509:16 0.000363777
16 *309:18 *509:26 0.000770332
17 *312:10 *509:16 0.000459185
18 *313:18 *509:26 0.000118797
19 *324:16 *509:32 0.000766631
20 *339:10 *509:26 0.0010101
21 *352:10 *509:16 0.00143278
22 *354:16 *509:16 0.0245095
23 *357:10 *509:16 0.00322878
24 *368:12 *509:16 0.000117344
25 *368:18 *509:16 0.000166756
26 *390:10 *509:16 0.000178742
27 *390:12 *509:16 0.000506303
28 *412:10 *509:16 0.000166756
29 *446:8 *509:16 0.00109524
30 *454:10 *509:16 0.000123077
31 *457:8 *509:16 0.000650002
32 *487:10 *509:16 0.00504943
33 *498:8 *509:16 0.000713608
*RES
1 *14797:X *509:12 48.5329 
2 *509:12 *509:14 8 
3 *509:14 *509:16 77.7392 
4 *509:16 *509:26 46.1666 
5 *509:26 *509:32 11.745 
6 *509:32 *786:DIODE 23 
7 *509:32 *14885:act_in[1] 34.9242 
*END

*D_NET *510 0.01925
*CONN
*I *832:DIODE I *D sky130_fd_sc_hd__diode_2
*I *14886:psum_in[22] I *D processing_element
*I *14798:X O *D sky130_fd_sc_hd__dlymetal6s2s_1
*CAP
1 *832:DIODE 0
2 *14886:psum_in[22] 0.000681558
3 *14798:X 0.000158396
4 *510:18 0.00279718
5 *510:16 0.00211563
6 *510:14 0.000884032
7 *510:12 0.000924148
8 *510:8 0.000198511
9 *510:14 *511:14 0.00552197
10 *510:14 *513:16 0.000282492
11 *502:12 *510:14 0.000405348
12 *504:12 *510:14 0.000312864
13 *508:14 *510:14 1.2377e-05
14 *508:16 *510:14 0.00493834
15 *508:22 *510:14 1.71761e-05
*RES
1 *14798:X *510:8 40.2579 
2 *510:8 *510:12 15.8493 
3 *510:12 *510:14 66.845 
4 *510:14 *510:16 15 
5 *510:16 *510:18 41.3457 
6 *510:18 *14886:psum_in[22] 14.5104 
7 *510:18 *832:DIODE 38 
*END

*D_NET *511 0.0192127
*CONN
*I *833:DIODE I *D sky130_fd_sc_hd__diode_2
*I *14886:psum_in[23] I *D processing_element
*I *14799:X O *D sky130_fd_sc_hd__dlymetal6s2s_1
*CAP
1 *833:DIODE 9.26332e-05
2 *14886:psum_in[23] 0.000716078
3 *14799:X 0.000175034
4 *511:18 0.00295608
5 *511:16 0.00214737
6 *511:14 0.00204117
7 *511:12 0.00209543
8 *511:8 0.000229296
9 *511:12 *513:14 1.14154e-05
10 *511:14 *513:16 0.000292466
11 *511:14 *521:10 0.00118535
12 *504:12 *511:14 0.0017484
13 *510:14 *511:14 0.00552197
*RES
1 *14799:X *511:8 40.2579 
2 *511:8 *511:12 16.2014 
3 *511:12 *511:14 71.1329 
4 *511:14 *511:16 15 
5 *511:16 *511:18 40.9936 
6 *511:18 *14886:psum_in[23] 14.8418 
7 *511:18 *833:DIODE 39.0979 
*END

*D_NET *512 0.0200015
*CONN
*I *834:DIODE I *D sky130_fd_sc_hd__diode_2
*I *14886:psum_in[24] I *D processing_element
*I *14800:X O *D sky130_fd_sc_hd__dlymetal6s2s_1
*CAP
1 *834:DIODE 0
2 *14886:psum_in[24] 0.000681558
3 *14800:X 0.000411184
4 *512:28 0.00285839
5 *512:26 0.00217684
6 *512:24 0.000739581
7 *512:22 0.00110277
8 *512:10 0.00077437
9 *512:10 *515:8 0.00200785
10 *512:10 *517:24 0.000317803
11 *512:10 *517:32 0.000542963
12 *512:22 *514:34 0.000576704
13 *512:22 *515:8 0.000321803
14 *512:24 *513:16 0.00334696
15 *503:12 *512:24 5.50106e-05
16 *508:8 *512:22 8.95629e-05
17 *508:16 *512:24 0.00399818
*RES
1 *14800:X *512:10 46.055 
2 *512:10 *512:22 41.3721 
3 *512:22 *512:24 43.9764 
4 *512:24 *512:26 15 
5 *512:26 *512:28 42.05 
6 *512:28 *14886:psum_in[24] 14.5104 
7 *512:28 *834:DIODE 38 
*END

*D_NET *513 0.0199689
*CONN
*I *835:DIODE I *D sky130_fd_sc_hd__diode_2
*I *14886:psum_in[25] I *D processing_element
*I *14801:X O *D sky130_fd_sc_hd__dlymetal6s2s_1
*CAP
1 *835:DIODE 0
2 *14886:psum_in[25] 0.000681558
3 *14801:X 0.000156558
4 *513:20 0.00288393
5 *513:18 0.00220237
6 *513:16 0.00336682
7 *513:14 0.00394505
8 *513:8 0.000734781
9 *513:14 *516:12 0.00140102
10 *513:14 *521:10 0.000597058
11 *513:16 *521:10 3.58084e-06
12 *508:14 *513:16 3.32677e-05
13 *508:16 *513:16 2.95972e-05
14 *510:14 *513:16 0.000282492
15 *511:12 *513:14 1.14154e-05
16 *511:14 *513:16 0.000292466
17 *512:24 *513:16 0.00334696
*RES
1 *14801:X *513:8 40.2579 
2 *513:8 *513:14 37.0814 
3 *513:14 *513:16 56.3636 
4 *513:16 *513:18 15 
5 *513:18 *513:20 42.4021 
6 *513:20 *14886:psum_in[25] 14.5104 
7 *513:20 *835:DIODE 38 
*END

*D_NET *514 0.0204209
*CONN
*I *836:DIODE I *D sky130_fd_sc_hd__diode_2
*I *14886:psum_in[26] I *D processing_element
*I *14802:X O *D sky130_fd_sc_hd__dlymetal6s2s_1
*CAP
1 *836:DIODE 0
2 *14886:psum_in[26] 0.000681558
3 *14802:X 0.000402683
4 *514:40 0.0030224
5 *514:38 0.00287096
6 *514:34 0.000947689
7 *514:20 0.00225534
8 *514:14 0.00199112
9 *514:8 0.000556035
10 *514:8 *515:8 0.00222783
11 *514:8 *517:24 0.000796798
12 *514:34 *515:8 0.000431962
13 *514:34 *517:32 0.00139321
14 *739:DIODE *514:34 0.000222786
15 *744:DIODE *514:8 8.1796e-05
16 *745:DIODE *514:8 0.000267837
17 *14795:A *514:34 0.000147091
18 *14796:A *514:34 0.00014196
19 *14801:A *514:8 3.22879e-05
20 *111:20 *514:38 7.88828e-05
21 *115:9 *514:20 4.08537e-05
22 *115:15 *514:20 0
23 *117:15 *514:14 6.6869e-05
24 *504:8 *514:40 0
25 *505:18 *514:40 0
26 *507:14 *514:34 0.000157298
27 *507:14 *514:38 0.000945193
28 *507:16 *514:38 8.37357e-05
29 *512:22 *514:34 0.000576704
*RES
1 *14802:X *514:8 48.2921 
2 *514:8 *514:14 32.61 
3 *514:14 *514:20 39.4429 
4 *514:20 *514:34 38.5314 
5 *514:34 *514:38 30.3907 
6 *514:38 *514:40 44.515 
7 *514:40 *14886:psum_in[26] 14.5104 
8 *514:40 *836:DIODE 38 
*END

*D_NET *515 0.022186
*CONN
*I *837:DIODE I *D sky130_fd_sc_hd__diode_2
*I *14886:psum_in[27] I *D processing_element
*I *14803:X O *D sky130_fd_sc_hd__dlymetal6s2s_1
*CAP
1 *837:DIODE 0
2 *14886:psum_in[27] 0.000701821
3 *14803:X 4.01155e-05
4 *515:12 0.00297328
5 *515:10 0.00227146
6 *515:8 0.00497862
7 *515:6 0.00501874
8 *515:8 *517:24 0.000191317
9 *747:DIODE *515:8 5.83407e-05
10 *14796:A *515:8 8.1796e-05
11 *507:14 *515:8 0.000881026
12 *512:10 *515:8 0.00200785
13 *512:22 *515:8 0.000321803
14 *514:8 *515:8 0.00222783
15 *514:34 *515:8 0.000431962
*RES
1 *14803:X *515:6 23.8493 
2 *515:6 *515:8 84.4729 
3 *515:8 *515:10 15 
4 *515:10 *515:12 43.4586 
5 *515:12 *14886:psum_in[27] 14.8418 
6 *515:12 *837:DIODE 38 
*END

*D_NET *516 0.0195131
*CONN
*I *838:DIODE I *D sky130_fd_sc_hd__diode_2
*I *14886:psum_in[28] I *D processing_element
*I *14804:X O *D sky130_fd_sc_hd__clkbuf_2
*CAP
1 *838:DIODE 0
2 *14886:psum_in[28] 0.000647256
3 *14804:X 0.000105488
4 *516:20 0.00233073
5 *516:18 0.00168348
6 *516:16 0.00224082
7 *516:14 0.00224082
8 *516:12 0.00304854
9 *516:10 0.00304854
10 *516:8 0.000105488
11 *516:12 *521:10 0.000334585
12 *516:20 *14886:psum_in[30] 5.50106e-05
13 *516:20 *519:14 0.0022713
14 *513:14 *516:12 0.00140102
*RES
1 *14804:X *516:8 39.5536 
2 *516:8 *516:10 15 
3 *516:10 *516:12 46.3586 
4 *516:12 *516:14 15 
5 *516:14 *516:16 43.8107 
6 *516:16 *516:18 15 
7 *516:18 *516:20 40.6414 
8 *516:20 *14886:psum_in[28] 28.4332 
9 *516:20 *838:DIODE 23 
*END

*D_NET *517 0.0201352
*CONN
*I *839:DIODE I *D sky130_fd_sc_hd__diode_2
*I *14886:psum_in[29] I *D processing_element
*I *14805:X O *D sky130_fd_sc_hd__clkbuf_2
*CAP
1 *839:DIODE 0
2 *14886:psum_in[29] 0.000711901
3 *14805:X 0.00111573
4 *517:34 0.00306263
5 *517:32 0.00350792
6 *517:24 0.00318064
7 *517:12 0.00313918
8 *742:DIODE *517:32 0.000129522
9 *743:DIODE *517:24 0.00010018
10 *743:DIODE *517:32 1.22822e-05
11 *744:DIODE *517:24 0.00014196
12 *745:DIODE *517:24 0.000489755
13 *747:DIODE *517:24 0.000576704
14 *14799:A *517:24 3.91386e-05
15 *14799:A *517:32 3.91386e-05
16 *14801:A *517:24 5.50049e-05
17 *14802:A *517:24 0.000169036
18 *14804:A *517:12 4.98353e-05
19 *14805:A *517:12 5.67058e-05
20 *115:9 *517:32 0.000141954
21 *116:9 *517:32 0.000117836
22 *119:9 *517:24 5.60787e-05
23 *512:10 *517:24 0.000317803
24 *512:10 *517:32 0.000542963
25 *514:8 *517:24 0.000796798
26 *514:34 *517:32 0.00139321
27 *515:8 *517:24 0.000191317
*RES
1 *14805:X *517:12 40.11 
2 *517:12 *517:24 49.6729 
3 *517:24 *517:32 44.725 
4 *517:32 *517:34 44.8671 
5 *517:34 *14886:psum_in[29] 14.8418 
6 *517:34 *839:DIODE 38 
*END

*D_NET *518 0.00582867
*CONN
*I *14886:psum_in[2] I *D processing_element
*I *14806:X O *D sky130_fd_sc_hd__buf_1
*CAP
1 *14886:psum_in[2] 0.00195093
2 *14806:X 0
3 *518:10 0.00291433
4 *518:6 0.000963402
*RES
1 *14806:X *518:6 38 
2 *518:6 *518:10 18.8396 
3 *518:10 *14886:psum_in[2] 39.7507 
*END

*D_NET *519 0.0207994
*CONN
*I *840:DIODE I *D sky130_fd_sc_hd__diode_2
*I *14886:psum_in[30] I *D processing_element
*I *14807:X O *D sky130_fd_sc_hd__clkbuf_2
*CAP
1 *840:DIODE 0
2 *14886:psum_in[30] 0.000716085
3 *14807:X 0.000393336
4 *519:14 0.00648685
5 *519:12 0.00577077
6 *519:10 0.002328
7 *519:8 0.00272133
8 *751:DIODE *519:8 5.67058e-05
9 *363:10 *519:10 0
10 *363:14 *519:10 0
11 *516:20 *14886:psum_in[30] 5.50106e-05
12 *516:20 *519:14 0.0022713
*RES
1 *14807:X *519:8 44.815 
2 *519:8 *519:10 45.5714 
3 *519:10 *519:12 15 
4 *519:12 *519:14 83.0436 
5 *519:14 *14886:psum_in[30] 29.6554 
6 *519:14 *840:DIODE 23 
*END

*D_NET *520 0.0502918
*CONN
*I *14885:act_in[2] I *D processing_element
*I *787:DIODE I *D sky130_fd_sc_hd__diode_2
*I *14808:X O *D sky130_fd_sc_hd__clkbuf_4
*CAP
1 *14885:act_in[2] 0.000554654
2 *787:DIODE 0.0002676
3 *14808:X 0.00173039
4 *520:12 0.000822254
5 *520:10 0.0197775
6 *520:8 0.0197775
7 *520:6 0.00173039
8 *763:DIODE *520:6 5.72217e-05
9 *14885:act_in[1] *14885:act_in[2] 0
10 *14885:act_in[3] *14885:act_in[2] 0
11 *14885:weight_in[13] *520:10 0.000159457
12 *14885:weight_in[14] *520:10 4.82745e-05
13 *14885:weight_in[4] *520:10 0.00161951
14 *14885:weight_in[6] *520:10 0.0002448
15 *14885:weight_in[7] *520:10 0.000849977
16 *14885:weight_in[9] *520:10 7.60729e-05
17 *14887:act_in[0] *520:10 0.000299157
18 *14887:act_in[10] *520:10 0.000131661
19 *14887:act_in[12] *520:10 7.60701e-05
20 *14887:act_in[1] *520:10 0.000155462
21 *14887:act_in[2] *520:10 4.82745e-05
22 *14887:act_in[3] *520:10 0.000103866
23 *14887:act_in[6] *520:10 2.11157e-05
24 *14887:act_in[9] *520:10 0.000187252
25 *14887:weight_in[0] *520:10 0
26 *14887:weight_in[4] *520:10 0
27 *302:20 *520:10 0
28 *305:18 *520:10 7.60701e-05
29 *310:18 *520:10 0.000159457
30 *311:10 *520:10 0
31 *319:18 *520:10 7.60729e-05
32 *339:18 *520:10 0
33 *348:24 *520:10 0
34 *350:18 *520:10 0
35 *350:22 *520:10 0
36 *401:18 *520:10 2.11066e-05
37 *454:18 *520:10 0
38 *454:22 *520:10 0
39 *454:28 *520:10 0
40 *454:30 *520:10 0
41 *455:18 *520:10 4.82745e-05
42 *498:16 *520:10 0.00117236
*RES
1 *14808:X *520:6 46.49 
2 *520:6 *520:8 15 
3 *520:8 *520:10 440.676 
4 *520:10 *520:12 15 
5 *520:12 *787:DIODE 26.48 
6 *520:12 *14885:act_in[2] 31.5892 
*END

*D_NET *521 0.0184989
*CONN
*I *841:DIODE I *D sky130_fd_sc_hd__diode_2
*I *14886:psum_in[31] I *D processing_element
*I *14809:X O *D sky130_fd_sc_hd__clkbuf_2
*CAP
1 *841:DIODE 0
2 *14886:psum_in[31] 0.000701777
3 *14809:X 0.00109777
4 *521:14 0.00277647
5 *521:12 0.0020747
6 *521:10 0.00430341
7 *521:8 0.00540118
8 *753:DIODE *521:8 2.30292e-05
9 *511:14 *521:10 0.00118535
10 *513:14 *521:10 0.000597058
11 *513:16 *521:10 3.58084e-06
12 *516:12 *521:10 0.000334585
*RES
1 *14809:X *521:8 41.9846 
2 *521:8 *521:10 66.1304 
3 *521:10 *521:12 15 
4 *521:12 *521:14 40.6414 
5 *521:14 *14886:psum_in[31] 14.5104 
6 *521:14 *841:DIODE 38 
*END

*D_NET *522 0.00640908
*CONN
*I *14886:psum_in[3] I *D processing_element
*I *14810:X O *D sky130_fd_sc_hd__buf_1
*CAP
1 *14886:psum_in[3] 7.90936e-05
2 *14810:X 0.000221023
3 *522:10 0.00295517
4 *522:8 0.00309709
5 *14810:A *522:8 5.67058e-05
*RES
1 *14810:X *522:8 41.9564 
2 *522:8 *522:10 57.3682 
3 *522:10 *14886:psum_in[3] 1.86429 
*END

*D_NET *523 0.00679671
*CONN
*I *14886:psum_in[4] I *D processing_element
*I *14811:X O *D sky130_fd_sc_hd__buf_1
*CAP
1 *14886:psum_in[4] 7.90936e-05
2 *14811:X 0.000414839
3 *523:10 0.00295517
4 *523:8 0.00329091
5 *14811:A *523:8 5.67058e-05
*RES
1 *14811:X *523:8 45.2914 
2 *523:8 *523:10 57.3682 
3 *523:10 *14886:psum_in[4] 1.86429 
*END

*D_NET *524 0.00751736
*CONN
*I *14886:psum_in[5] I *D processing_element
*I *14812:X O *D sky130_fd_sc_hd__buf_1
*CAP
1 *14886:psum_in[5] 0.000852549
2 *14812:X 0
3 *524:14 0.00159129
4 *524:8 0.00281341
5 *524:6 0.00207467
6 *524:14 *525:14 0.000185434
*RES
1 *14812:X *524:6 38 
2 *524:6 *524:8 40.6414 
3 *524:8 *524:14 40.15 
4 *524:14 *14886:psum_in[5] 17.6589 
*END

*D_NET *525 0.0077162
*CONN
*I *14886:psum_in[6] I *D processing_element
*I *14813:X O *D sky130_fd_sc_hd__buf_1
*CAP
1 *14886:psum_in[6] 0.000878862
2 *14813:X 0
3 *525:14 0.00142115
4 *525:8 0.00264249
5 *525:6 0.0021002
6 *525:14 *526:14 0.000488055
7 *524:14 *525:14 0.000185434
*RES
1 *14813:X *525:6 38 
2 *525:6 *525:8 40.9936 
3 *525:8 *525:14 42.5321 
4 *525:14 *14886:psum_in[6] 18.2596 
*END

*D_NET *526 0.00934435
*CONN
*I *14886:psum_in[7] I *D processing_element
*I *14814:X O *D sky130_fd_sc_hd__buf_1
*CAP
1 *14886:psum_in[7] 0.000904397
2 *14814:X 0
3 *526:14 0.00191297
4 *526:8 0.00308324
5 *526:6 0.00207467
6 *526:14 *527:14 0.000881026
7 *525:14 *526:14 0.000488055
*RES
1 *14814:X *526:6 38 
2 *526:6 *526:8 40.6414 
3 *526:8 *526:14 46.82 
4 *526:14 *14886:psum_in[7] 18.6118 
*END

*D_NET *527 0.00918531
*CONN
*I *14886:psum_in[8] I *D processing_element
*I *14815:X O *D sky130_fd_sc_hd__buf_1
*CAP
1 *14886:psum_in[8] 0.000878862
2 *14815:X 0
3 *527:14 0.00151288
4 *527:8 0.00272408
5 *527:6 0.00209006
6 *527:14 *528:16 0.0010984
7 *14886:psum_in[11] *527:8 0
8 *526:14 *527:14 0.000881026
*RES
1 *14815:X *527:6 38 
2 *527:6 *527:8 40.9936 
3 *527:8 *527:14 49.2021 
4 *527:14 *14886:psum_in[8] 18.2596 
*END

*D_NET *528 0.00983225
*CONN
*I *14886:psum_in[9] I *D processing_element
*I *14816:X O *D sky130_fd_sc_hd__buf_1
*CAP
1 *14886:psum_in[9] 0.000863437
2 *14816:X 0.000248711
3 *528:16 0.00130113
4 *528:10 0.00262213
5 *528:8 0.00243315
6 *14816:A *528:8 5.67058e-05
7 *14886:psum_in[11] *528:10 0
8 *495:16 *528:16 0.00100885
9 *496:20 *528:16 0.00019975
10 *497:16 *528:10 0
11 *527:14 *528:16 0.0010984
*RES
1 *14816:X *528:8 42.4329 
2 *528:8 *528:10 42.7543 
3 *528:10 *528:16 48.2493 
4 *528:16 *14886:psum_in[9] 17.9075 
*END

*D_NET *529 0.164366
*CONN
*I *842:DIODE I *D sky130_fd_sc_hd__diode_2
*I *14885:rst_n I *D processing_element
*I *808:DIODE I *D sky130_fd_sc_hd__diode_2
*I *14886:rst_n I *D processing_element
*I *14887:rst_n I *D processing_element
*I *866:DIODE I *D sky130_fd_sc_hd__diode_2
*I *896:DIODE I *D sky130_fd_sc_hd__diode_2
*I *14888:rst_n I *D processing_element
*I *14817:X O *D sky130_fd_sc_hd__clkbuf_16
*CAP
1 *842:DIODE 1.38655e-05
2 *14885:rst_n 7.11757e-05
3 *808:DIODE 0
4 *14886:rst_n 0.00106075
5 *14887:rst_n 0.000120278
6 *866:DIODE 0
7 *896:DIODE 4.98856e-05
8 *14888:rst_n 0.000780734
9 *14817:X 1.92429e-05
10 *529:106 0.000894536
11 *529:96 0.00942182
12 *529:84 0.00953073
13 *529:75 0.0162863
14 *529:73 0.0167592
15 *529:58 0.000833869
16 *529:48 0.00835562
17 *529:25 0.0082321
18 *529:16 0.00202171
19 *529:12 0.0177268
20 *529:10 0.0161973
21 *14886:load_weight *529:84 0
22 *14888:act_in[11] *529:75 0.000227734
23 *14888:act_in[14] *529:75 0.000313577
24 *14888:act_in[15] *529:75 0.000227734
25 *14888:clk *529:25 0
26 *14888:load_weight *529:25 0.000253809
27 *14888:weight_in[11] *529:75 0.000364411
28 *14888:weight_in[12] *529:75 0.000210019
29 *14888:weight_in[13] *529:75 0.000364411
30 *14888:weight_in[15] *529:75 0.000227734
31 *14888:weight_in[1] *529:75 0.000287215
32 *14888:weight_in[2] *529:75 0.000210019
33 *14888:weight_in[3] *529:75 0.000210019
34 *14888:weight_in[6] *529:75 0.000210019
35 *14888:weight_in[7] *529:75 0.000210019
36 *14888:weight_in[8] *529:75 0.000210019
37 *234:9 *529:96 0.000251253
38 *299:30 *529:48 0.00326116
39 *299:40 *529:58 0
40 *299:69 *529:48 0.00277197
41 *300:26 *529:96 0.00386776
42 *300:45 *529:106 0
43 *300:66 *529:96 0.00308003
44 *327:10 *529:75 0.000342859
45 *328:16 *842:DIODE 2.33476e-05
46 *359:18 *529:75 0.00162621
47 *363:20 *529:75 0
48 *364:20 *529:75 0.000967776
49 *364:24 *529:75 0.000789396
50 *458:12 *529:12 0.0076478
51 *458:20 *896:DIODE 2.33476e-05
52 *458:24 *896:DIODE 7.20663e-06
53 *458:24 *529:25 4.07923e-06
54 *458:36 *529:48 0.0204298
55 *458:46 *529:58 0
56 *458:99 *529:96 0.00736937
57 *458:109 *529:106 0
*RES
1 *14817:X *529:10 46.3211 
2 *529:10 *529:12 54.5384 
3 *529:12 *529:16 13.7045 
4 *529:16 *14888:rst_n 8 
5 *14888:rst_n *529:25 3.276 
6 *529:25 *896:DIODE 46.42 
7 *529:25 *529:48 23.7463 
8 *529:48 *529:58 37.639 
9 *529:58 *866:DIODE 23 
10 *529:48 *14887:rst_n 0.472267 
11 *529:16 *529:73 1.26933 
12 *529:73 *529:75 53.2075 
13 *529:75 *14886:rst_n 8 
14 *14886:rst_n *529:84 2.87093 
15 *529:84 *529:96 23.8452 
16 *529:96 *529:106 36.8579 
17 *529:106 *808:DIODE 23 
18 *529:96 *14885:rst_n 0.281867 
19 *529:84 *842:DIODE 46.3211 
*END

*D_NET *530 0.0659176
*CONN
*I *14885:valid_in I *D processing_element
*I *809:DIODE I *D sky130_fd_sc_hd__diode_2
*I *14818:X O *D sky130_fd_sc_hd__clkbuf_4
*CAP
1 *14885:valid_in 0.000777448
2 *809:DIODE 0
3 *14818:X 0
4 *530:12 0.00237966
5 *530:8 0.0206151
6 *530:6 0.0190128
7 *14885:act_in[0] *14885:valid_in 0
8 *14885:weight_in[15] *14885:valid_in 0
9 *166:23 *530:8 5.561e-05
10 *301:10 *530:8 0
11 *301:12 *530:8 0
12 *303:10 *530:8 0
13 *335:10 *530:8 0
14 *341:16 *530:8 0
15 *344:10 *530:8 0
16 *346:10 *530:8 0
17 *349:16 *530:8 0
18 *353:10 *530:8 0.00298599
19 *354:16 *530:8 0.00280486
20 *354:24 *530:8 0
21 *368:12 *530:8 0
22 *368:18 *530:8 0.00193107
23 *412:10 *530:8 0.00744064
24 *413:10 *530:8 0
25 *424:10 *530:8 0.00439244
26 *449:14 *530:8 0
27 *453:12 *530:8 0.00249726
28 *509:16 *530:8 0.00102471
*RES
1 *14818:X *530:6 38 
2 *530:6 *530:8 463.565 
3 *530:8 *530:12 32.7729 
4 *530:12 *809:DIODE 23 
5 *530:12 *14885:valid_in 34.9242 
*END

*D_NET *531 0.00534007
*CONN
*I *14887:psum_in[0] I *D processing_element
*I *14885:psum_out[0] O *D processing_element
*CAP
1 *14887:psum_in[0] 0.00267003
2 *14885:psum_out[0] 0.00267003
*RES
1 *14885:psum_out[0] *14887:psum_in[0] 55.6386 
*END

*D_NET *532 0.00534007
*CONN
*I *14887:psum_in[10] I *D processing_element
*I *14885:psum_out[10] O *D processing_element
*CAP
1 *14887:psum_in[10] 0.00267003
2 *14885:psum_out[10] 0.00267003
*RES
1 *14885:psum_out[10] *14887:psum_in[10] 55.6386 
*END

*D_NET *533 0.00534007
*CONN
*I *14887:psum_in[11] I *D processing_element
*I *14885:psum_out[11] O *D processing_element
*CAP
1 *14887:psum_in[11] 0.00267003
2 *14885:psum_out[11] 0.00267003
*RES
1 *14885:psum_out[11] *14887:psum_in[11] 55.6386 
*END

*D_NET *534 0.00534007
*CONN
*I *14887:psum_in[12] I *D processing_element
*I *14885:psum_out[12] O *D processing_element
*CAP
1 *14887:psum_in[12] 0.00267003
2 *14885:psum_out[12] 0.00267003
*RES
1 *14885:psum_out[12] *14887:psum_in[12] 55.6386 
*END

*D_NET *535 0.00534007
*CONN
*I *14887:psum_in[13] I *D processing_element
*I *14885:psum_out[13] O *D processing_element
*CAP
1 *14887:psum_in[13] 0.00267003
2 *14885:psum_out[13] 0.00267003
*RES
1 *14885:psum_out[13] *14887:psum_in[13] 55.6386 
*END

*D_NET *536 0.00534007
*CONN
*I *14887:psum_in[14] I *D processing_element
*I *14885:psum_out[14] O *D processing_element
*CAP
1 *14887:psum_in[14] 0.00267003
2 *14885:psum_out[14] 0.00267003
*RES
1 *14885:psum_out[14] *14887:psum_in[14] 55.6386 
*END

*D_NET *537 0.00534007
*CONN
*I *14887:psum_in[15] I *D processing_element
*I *14885:psum_out[15] O *D processing_element
*CAP
1 *14887:psum_in[15] 0.00267003
2 *14885:psum_out[15] 0.00267003
*RES
1 *14885:psum_out[15] *14887:psum_in[15] 55.6386 
*END

*D_NET *538 0.00534007
*CONN
*I *14887:psum_in[16] I *D processing_element
*I *14885:psum_out[16] O *D processing_element
*CAP
1 *14887:psum_in[16] 0.00267003
2 *14885:psum_out[16] 0.00267003
*RES
1 *14885:psum_out[16] *14887:psum_in[16] 55.6386 
*END

*D_NET *539 0.00534007
*CONN
*I *14887:psum_in[17] I *D processing_element
*I *14885:psum_out[17] O *D processing_element
*CAP
1 *14887:psum_in[17] 0.00267003
2 *14885:psum_out[17] 0.00267003
*RES
1 *14885:psum_out[17] *14887:psum_in[17] 55.6386 
*END

*D_NET *540 0.00534007
*CONN
*I *14887:psum_in[18] I *D processing_element
*I *14885:psum_out[18] O *D processing_element
*CAP
1 *14887:psum_in[18] 0.00267003
2 *14885:psum_out[18] 0.00267003
*RES
1 *14885:psum_out[18] *14887:psum_in[18] 55.6386 
*END

*D_NET *541 0.00733023
*CONN
*I *14887:psum_in[19] I *D processing_element
*I *14885:psum_out[19] O *D processing_element
*CAP
1 *14887:psum_in[19] 4.53735e-05
2 *14885:psum_out[19] 4.53735e-05
3 *541:7 0.00219057
4 *541:5 0.00219057
5 *300:14 *541:7 0.00285835
*RES
1 *14885:psum_out[19] *541:5 1.02536 
2 *541:5 *541:7 55.7836 
3 *541:7 *14887:psum_in[19] 1.02536 
*END

*D_NET *542 0.00534007
*CONN
*I *14887:psum_in[1] I *D processing_element
*I *14885:psum_out[1] O *D processing_element
*CAP
1 *14887:psum_in[1] 0.00267003
2 *14885:psum_out[1] 0.00267003
*RES
1 *14885:psum_out[1] *14887:psum_in[1] 55.6386 
*END

*D_NET *543 0.00536023
*CONN
*I *14887:psum_in[20] I *D processing_element
*I *14885:psum_out[20] O *D processing_element
*CAP
1 *14887:psum_in[20] 0.00268011
2 *14885:psum_out[20] 0.00268011
3 *298:30 *14887:psum_in[20] 0
*RES
1 *14885:psum_out[20] *14887:psum_in[20] 55.6386 
*END

*D_NET *544 0.00536942
*CONN
*I *14887:psum_in[21] I *D processing_element
*I *14885:psum_out[21] O *D processing_element
*CAP
1 *14887:psum_in[21] 0.00268471
2 *14885:psum_out[21] 0.00268471
*RES
1 *14885:psum_out[21] *14887:psum_in[21] 55.6386 
*END

*D_NET *545 0.00542155
*CONN
*I *14887:psum_in[22] I *D processing_element
*I *14885:psum_out[22] O *D processing_element
*CAP
1 *14887:psum_in[22] 0.00260936
2 *14885:psum_out[22] 0.00260936
3 *35:19 *14887:psum_in[22] 0.000202816
*RES
1 *14885:psum_out[22] *14887:psum_in[22] 55.6386 
*END

*D_NET *546 0.00538544
*CONN
*I *14887:psum_in[23] I *D processing_element
*I *14885:psum_out[23] O *D processing_element
*CAP
1 *14887:psum_in[23] 0.00269272
2 *14885:psum_out[23] 0.00269272
*RES
1 *14885:psum_out[23] *14887:psum_in[23] 55.6386 
*END

*D_NET *547 0.00538544
*CONN
*I *14887:psum_in[24] I *D processing_element
*I *14885:psum_out[24] O *D processing_element
*CAP
1 *14887:psum_in[24] 0.00269272
2 *14885:psum_out[24] 0.00269272
*RES
1 *14885:psum_out[24] *14887:psum_in[24] 55.6386 
*END

*D_NET *548 0.00538544
*CONN
*I *14887:psum_in[25] I *D processing_element
*I *14885:psum_out[25] O *D processing_element
*CAP
1 *14887:psum_in[25] 0.00269272
2 *14885:psum_out[25] 0.00269272
*RES
1 *14885:psum_out[25] *14887:psum_in[25] 55.6386 
*END

*D_NET *549 0.00538544
*CONN
*I *14887:psum_in[26] I *D processing_element
*I *14885:psum_out[26] O *D processing_element
*CAP
1 *14887:psum_in[26] 0.00269272
2 *14885:psum_out[26] 0.00269272
*RES
1 *14885:psum_out[26] *14887:psum_in[26] 55.6386 
*END

*D_NET *550 0.00538544
*CONN
*I *14887:psum_in[27] I *D processing_element
*I *14885:psum_out[27] O *D processing_element
*CAP
1 *14887:psum_in[27] 0.00269272
2 *14885:psum_out[27] 0.00269272
*RES
1 *14885:psum_out[27] *14887:psum_in[27] 55.6386 
*END

*D_NET *551 0.00538544
*CONN
*I *14887:psum_in[28] I *D processing_element
*I *14885:psum_out[28] O *D processing_element
*CAP
1 *14887:psum_in[28] 0.00269272
2 *14885:psum_out[28] 0.00269272
*RES
1 *14885:psum_out[28] *14887:psum_in[28] 55.6386 
*END

*D_NET *552 0.00538544
*CONN
*I *14887:psum_in[29] I *D processing_element
*I *14885:psum_out[29] O *D processing_element
*CAP
1 *14887:psum_in[29] 0.00269272
2 *14885:psum_out[29] 0.00269272
*RES
1 *14885:psum_out[29] *14887:psum_in[29] 55.6386 
*END

*D_NET *553 0.00534007
*CONN
*I *14887:psum_in[2] I *D processing_element
*I *14885:psum_out[2] O *D processing_element
*CAP
1 *14887:psum_in[2] 0.00267003
2 *14885:psum_out[2] 0.00267003
*RES
1 *14885:psum_out[2] *14887:psum_in[2] 55.6386 
*END

*D_NET *554 0.00538544
*CONN
*I *14887:psum_in[30] I *D processing_element
*I *14885:psum_out[30] O *D processing_element
*CAP
1 *14887:psum_in[30] 0.00269272
2 *14885:psum_out[30] 0.00269272
*RES
1 *14885:psum_out[30] *14887:psum_in[30] 55.6386 
*END

*D_NET *555 0.00538544
*CONN
*I *14887:psum_in[31] I *D processing_element
*I *14885:psum_out[31] O *D processing_element
*CAP
1 *14887:psum_in[31] 0.00269272
2 *14885:psum_out[31] 0.00269272
*RES
1 *14885:psum_out[31] *14887:psum_in[31] 55.6386 
*END

*D_NET *556 0.00534007
*CONN
*I *14887:psum_in[3] I *D processing_element
*I *14885:psum_out[3] O *D processing_element
*CAP
1 *14887:psum_in[3] 0.00267003
2 *14885:psum_out[3] 0.00267003
*RES
1 *14885:psum_out[3] *14887:psum_in[3] 55.6386 
*END

*D_NET *557 0.00534007
*CONN
*I *14887:psum_in[4] I *D processing_element
*I *14885:psum_out[4] O *D processing_element
*CAP
1 *14887:psum_in[4] 0.00267003
2 *14885:psum_out[4] 0.00267003
*RES
1 *14885:psum_out[4] *14887:psum_in[4] 55.6386 
*END

*D_NET *558 0.00534007
*CONN
*I *14887:psum_in[5] I *D processing_element
*I *14885:psum_out[5] O *D processing_element
*CAP
1 *14887:psum_in[5] 0.00267003
2 *14885:psum_out[5] 0.00267003
*RES
1 *14885:psum_out[5] *14887:psum_in[5] 55.6386 
*END

*D_NET *559 0.00534007
*CONN
*I *14887:psum_in[6] I *D processing_element
*I *14885:psum_out[6] O *D processing_element
*CAP
1 *14887:psum_in[6] 0.00267003
2 *14885:psum_out[6] 0.00267003
*RES
1 *14885:psum_out[6] *14887:psum_in[6] 55.6386 
*END

*D_NET *560 0.00534007
*CONN
*I *14887:psum_in[7] I *D processing_element
*I *14885:psum_out[7] O *D processing_element
*CAP
1 *14887:psum_in[7] 0.00267003
2 *14885:psum_out[7] 0.00267003
*RES
1 *14885:psum_out[7] *14887:psum_in[7] 55.6386 
*END

*D_NET *561 0.00534007
*CONN
*I *14887:psum_in[8] I *D processing_element
*I *14885:psum_out[8] O *D processing_element
*CAP
1 *14887:psum_in[8] 0.00267003
2 *14885:psum_out[8] 0.00267003
*RES
1 *14885:psum_out[8] *14887:psum_in[8] 55.6386 
*END

*D_NET *562 0.00534007
*CONN
*I *14887:psum_in[9] I *D processing_element
*I *14885:psum_out[9] O *D processing_element
*CAP
1 *14887:psum_in[9] 0.00267003
2 *14885:psum_out[9] 0.00267003
*RES
1 *14885:psum_out[9] *14887:psum_in[9] 55.6386 
*END

*D_NET *563 0.00595465
*CONN
*I *14888:psum_in[0] I *D processing_element
*I *14886:psum_out[0] O *D processing_element
*CAP
1 *14888:psum_in[0] 7.90936e-05
2 *14886:psum_out[0] 7.44601e-05
3 *563:9 0.00290287
4 *563:7 0.00289823
*RES
1 *14886:psum_out[0] *563:7 1.86429 
2 *563:7 *563:9 52.9664 
3 *563:9 *14888:psum_in[0] 1.86429 
*END

*D_NET *564 0.00595465
*CONN
*I *14888:psum_in[10] I *D processing_element
*I *14886:psum_out[10] O *D processing_element
*CAP
1 *14888:psum_in[10] 7.90936e-05
2 *14886:psum_out[10] 7.44601e-05
3 *564:9 0.00290287
4 *564:7 0.00289823
*RES
1 *14886:psum_out[10] *564:7 1.86429 
2 *564:7 *564:9 52.9664 
3 *564:9 *14888:psum_in[10] 1.86429 
*END

*D_NET *565 0.00595465
*CONN
*I *14888:psum_in[11] I *D processing_element
*I *14886:psum_out[11] O *D processing_element
*CAP
1 *14888:psum_in[11] 7.90936e-05
2 *14886:psum_out[11] 7.44601e-05
3 *565:9 0.00290287
4 *565:7 0.00289823
*RES
1 *14886:psum_out[11] *565:7 1.86429 
2 *565:7 *565:9 52.9664 
3 *565:9 *14888:psum_in[11] 1.86429 
*END

*D_NET *566 0.00595465
*CONN
*I *14888:psum_in[12] I *D processing_element
*I *14886:psum_out[12] O *D processing_element
*CAP
1 *14888:psum_in[12] 7.90936e-05
2 *14886:psum_out[12] 7.44601e-05
3 *566:9 0.00290287
4 *566:7 0.00289823
*RES
1 *14886:psum_out[12] *566:7 1.86429 
2 *566:7 *566:9 52.9664 
3 *566:9 *14888:psum_in[12] 1.86429 
*END

*D_NET *567 0.00595465
*CONN
*I *14888:psum_in[13] I *D processing_element
*I *14886:psum_out[13] O *D processing_element
*CAP
1 *14888:psum_in[13] 7.90936e-05
2 *14886:psum_out[13] 7.44601e-05
3 *567:9 0.00290287
4 *567:7 0.00289823
*RES
1 *14886:psum_out[13] *567:7 1.86429 
2 *567:7 *567:9 52.9664 
3 *567:9 *14888:psum_in[13] 1.86429 
*END

*D_NET *568 0.00595465
*CONN
*I *14888:psum_in[14] I *D processing_element
*I *14886:psum_out[14] O *D processing_element
*CAP
1 *14888:psum_in[14] 7.90936e-05
2 *14886:psum_out[14] 7.44601e-05
3 *568:9 0.00290287
4 *568:7 0.00289823
*RES
1 *14886:psum_out[14] *568:7 1.86429 
2 *568:7 *568:9 52.9664 
3 *568:9 *14888:psum_in[14] 1.86429 
*END

*D_NET *569 0.00595465
*CONN
*I *14888:psum_in[15] I *D processing_element
*I *14886:psum_out[15] O *D processing_element
*CAP
1 *14888:psum_in[15] 7.90936e-05
2 *14886:psum_out[15] 7.44601e-05
3 *569:9 0.00290287
4 *569:7 0.00289823
*RES
1 *14886:psum_out[15] *569:7 1.86429 
2 *569:7 *569:9 52.9664 
3 *569:9 *14888:psum_in[15] 1.86429 
*END

*D_NET *570 0.00595465
*CONN
*I *14888:psum_in[16] I *D processing_element
*I *14886:psum_out[16] O *D processing_element
*CAP
1 *14888:psum_in[16] 7.90936e-05
2 *14886:psum_out[16] 7.44601e-05
3 *570:9 0.00290287
4 *570:7 0.00289823
*RES
1 *14886:psum_out[16] *570:7 1.86429 
2 *570:7 *570:9 52.9664 
3 *570:9 *14888:psum_in[16] 1.86429 
*END

*D_NET *571 0.00595465
*CONN
*I *14888:psum_in[17] I *D processing_element
*I *14886:psum_out[17] O *D processing_element
*CAP
1 *14888:psum_in[17] 7.90936e-05
2 *14886:psum_out[17] 7.44601e-05
3 *571:9 0.00290287
4 *571:7 0.00289823
*RES
1 *14886:psum_out[17] *571:7 1.86429 
2 *571:7 *571:9 52.9664 
3 *571:9 *14888:psum_in[17] 1.86429 
*END

*D_NET *572 0.00595465
*CONN
*I *14888:psum_in[18] I *D processing_element
*I *14886:psum_out[18] O *D processing_element
*CAP
1 *14888:psum_in[18] 7.90936e-05
2 *14886:psum_out[18] 7.44601e-05
3 *572:9 0.00290287
4 *572:7 0.00289823
*RES
1 *14886:psum_out[18] *572:7 1.86429 
2 *572:7 *572:9 52.9664 
3 *572:9 *14888:psum_in[18] 1.86429 
*END

*D_NET *573 0.00595465
*CONN
*I *14888:psum_in[19] I *D processing_element
*I *14886:psum_out[19] O *D processing_element
*CAP
1 *14888:psum_in[19] 7.90936e-05
2 *14886:psum_out[19] 7.44601e-05
3 *573:9 0.00290287
4 *573:7 0.00289823
*RES
1 *14886:psum_out[19] *573:7 1.86429 
2 *573:7 *573:9 52.9664 
3 *573:9 *14888:psum_in[19] 1.86429 
*END

*D_NET *574 0.00596511
*CONN
*I *14888:psum_in[1] I *D processing_element
*I *14886:psum_out[1] O *D processing_element
*CAP
1 *14888:psum_in[1] 7.95427e-05
2 *14886:psum_out[1] 7.87864e-05
3 *574:9 0.00290377
4 *574:7 0.00290301
*RES
1 *14886:psum_out[1] *574:7 1.86429 
2 *574:7 *574:9 52.9664 
3 *574:9 *14888:psum_in[1] 1.86429 
*END

*D_NET *575 0.00595465
*CONN
*I *14888:psum_in[20] I *D processing_element
*I *14886:psum_out[20] O *D processing_element
*CAP
1 *14888:psum_in[20] 7.90936e-05
2 *14886:psum_out[20] 7.44601e-05
3 *575:9 0.00290287
4 *575:7 0.00289823
*RES
1 *14886:psum_out[20] *575:7 1.86429 
2 *575:7 *575:9 52.9664 
3 *575:9 *14888:psum_in[20] 1.86429 
*END

*D_NET *576 0.00595465
*CONN
*I *14888:psum_in[21] I *D processing_element
*I *14886:psum_out[21] O *D processing_element
*CAP
1 *14888:psum_in[21] 7.90936e-05
2 *14886:psum_out[21] 7.44601e-05
3 *576:9 0.00290287
4 *576:7 0.00289823
*RES
1 *14886:psum_out[21] *576:7 1.86429 
2 *576:7 *576:9 52.9664 
3 *576:9 *14888:psum_in[21] 1.86429 
*END

*D_NET *577 0.00595465
*CONN
*I *14888:psum_in[22] I *D processing_element
*I *14886:psum_out[22] O *D processing_element
*CAP
1 *14888:psum_in[22] 7.90936e-05
2 *14886:psum_out[22] 7.44601e-05
3 *577:9 0.00290287
4 *577:7 0.00289823
*RES
1 *14886:psum_out[22] *577:7 1.86429 
2 *577:7 *577:9 52.9664 
3 *577:9 *14888:psum_in[22] 1.86429 
*END

*D_NET *578 0.00616163
*CONN
*I *14888:psum_in[23] I *D processing_element
*I *14886:psum_out[23] O *D processing_element
*CAP
1 *14888:psum_in[23] 3.48322e-05
2 *14886:psum_out[23] 5.36687e-05
3 *578:7 0.00302715
4 *578:5 0.00304598
*RES
1 *14886:psum_out[23] *578:5 0.787143 
2 *578:5 *578:7 55.7836 
3 *578:7 *14888:psum_in[23] 0.787143 
*END

*D_NET *579 0.00595465
*CONN
*I *14888:psum_in[24] I *D processing_element
*I *14886:psum_out[24] O *D processing_element
*CAP
1 *14888:psum_in[24] 7.90936e-05
2 *14886:psum_out[24] 7.44601e-05
3 *579:9 0.00290287
4 *579:7 0.00289823
*RES
1 *14886:psum_out[24] *579:7 1.86429 
2 *579:7 *579:9 52.9664 
3 *579:9 *14888:psum_in[24] 1.86429 
*END

*D_NET *580 0.00595465
*CONN
*I *14888:psum_in[25] I *D processing_element
*I *14886:psum_out[25] O *D processing_element
*CAP
1 *14888:psum_in[25] 7.90936e-05
2 *14886:psum_out[25] 7.44601e-05
3 *580:9 0.00290287
4 *580:7 0.00289823
*RES
1 *14886:psum_out[25] *580:7 1.86429 
2 *580:7 *580:9 52.9664 
3 *580:9 *14888:psum_in[25] 1.86429 
*END

*D_NET *581 0.00595465
*CONN
*I *14888:psum_in[26] I *D processing_element
*I *14886:psum_out[26] O *D processing_element
*CAP
1 *14888:psum_in[26] 7.90936e-05
2 *14886:psum_out[26] 7.44601e-05
3 *581:9 0.00290287
4 *581:7 0.00289823
*RES
1 *14886:psum_out[26] *581:7 1.86429 
2 *581:7 *581:9 52.9664 
3 *581:9 *14888:psum_in[26] 1.86429 
*END

*D_NET *582 0.00595465
*CONN
*I *14888:psum_in[27] I *D processing_element
*I *14886:psum_out[27] O *D processing_element
*CAP
1 *14888:psum_in[27] 7.90936e-05
2 *14886:psum_out[27] 7.44601e-05
3 *582:9 0.00290287
4 *582:7 0.00289823
*RES
1 *14886:psum_out[27] *582:7 1.86429 
2 *582:7 *582:9 52.9664 
3 *582:9 *14888:psum_in[27] 1.86429 
*END

*D_NET *583 0.00595465
*CONN
*I *14888:psum_in[28] I *D processing_element
*I *14886:psum_out[28] O *D processing_element
*CAP
1 *14888:psum_in[28] 7.90936e-05
2 *14886:psum_out[28] 7.44601e-05
3 *583:9 0.00290287
4 *583:7 0.00289823
*RES
1 *14886:psum_out[28] *583:7 1.86429 
2 *583:7 *583:9 52.9664 
3 *583:9 *14888:psum_in[28] 1.86429 
*END

*D_NET *584 0.00595465
*CONN
*I *14888:psum_in[29] I *D processing_element
*I *14886:psum_out[29] O *D processing_element
*CAP
1 *14888:psum_in[29] 7.90936e-05
2 *14886:psum_out[29] 7.44601e-05
3 *584:9 0.00290287
4 *584:7 0.00289823
*RES
1 *14886:psum_out[29] *584:7 1.86429 
2 *584:7 *584:9 52.9664 
3 *584:9 *14888:psum_in[29] 1.86429 
*END

*D_NET *585 0.00595465
*CONN
*I *14888:psum_in[2] I *D processing_element
*I *14886:psum_out[2] O *D processing_element
*CAP
1 *14888:psum_in[2] 7.90936e-05
2 *14886:psum_out[2] 7.44601e-05
3 *585:9 0.00290287
4 *585:7 0.00289823
*RES
1 *14886:psum_out[2] *585:7 1.86429 
2 *585:7 *585:9 52.9664 
3 *585:9 *14888:psum_in[2] 1.86429 
*END

*D_NET *586 0.00595465
*CONN
*I *14888:psum_in[30] I *D processing_element
*I *14886:psum_out[30] O *D processing_element
*CAP
1 *14888:psum_in[30] 7.90936e-05
2 *14886:psum_out[30] 7.44601e-05
3 *586:9 0.00290287
4 *586:7 0.00289823
*RES
1 *14886:psum_out[30] *586:7 1.86429 
2 *586:7 *586:9 52.9664 
3 *586:9 *14888:psum_in[30] 1.86429 
*END

*D_NET *587 0.00595465
*CONN
*I *14888:psum_in[31] I *D processing_element
*I *14886:psum_out[31] O *D processing_element
*CAP
1 *14888:psum_in[31] 7.90936e-05
2 *14886:psum_out[31] 7.44601e-05
3 *587:9 0.00290287
4 *587:7 0.00289823
*RES
1 *14886:psum_out[31] *587:7 1.86429 
2 *587:7 *587:9 52.9664 
3 *587:9 *14888:psum_in[31] 1.86429 
*END

*D_NET *588 0.00595465
*CONN
*I *14888:psum_in[3] I *D processing_element
*I *14886:psum_out[3] O *D processing_element
*CAP
1 *14888:psum_in[3] 7.90936e-05
2 *14886:psum_out[3] 7.44601e-05
3 *588:9 0.00290287
4 *588:7 0.00289823
*RES
1 *14886:psum_out[3] *588:7 1.86429 
2 *588:7 *588:9 52.9664 
3 *588:9 *14888:psum_in[3] 1.86429 
*END

*D_NET *589 0.00595465
*CONN
*I *14888:psum_in[4] I *D processing_element
*I *14886:psum_out[4] O *D processing_element
*CAP
1 *14888:psum_in[4] 7.90936e-05
2 *14886:psum_out[4] 7.44601e-05
3 *589:9 0.00290287
4 *589:7 0.00289823
*RES
1 *14886:psum_out[4] *589:7 1.86429 
2 *589:7 *589:9 52.9664 
3 *589:9 *14888:psum_in[4] 1.86429 
*END

*D_NET *590 0.00595465
*CONN
*I *14888:psum_in[5] I *D processing_element
*I *14886:psum_out[5] O *D processing_element
*CAP
1 *14888:psum_in[5] 7.90936e-05
2 *14886:psum_out[5] 7.44601e-05
3 *590:9 0.00290287
4 *590:7 0.00289823
*RES
1 *14886:psum_out[5] *590:7 1.86429 
2 *590:7 *590:9 52.9664 
3 *590:9 *14888:psum_in[5] 1.86429 
*END

*D_NET *591 0.00595465
*CONN
*I *14888:psum_in[6] I *D processing_element
*I *14886:psum_out[6] O *D processing_element
*CAP
1 *14888:psum_in[6] 7.90936e-05
2 *14886:psum_out[6] 7.44601e-05
3 *591:9 0.00290287
4 *591:7 0.00289823
*RES
1 *14886:psum_out[6] *591:7 1.86429 
2 *591:7 *591:9 52.9664 
3 *591:9 *14888:psum_in[6] 1.86429 
*END

*D_NET *592 0.00595465
*CONN
*I *14888:psum_in[7] I *D processing_element
*I *14886:psum_out[7] O *D processing_element
*CAP
1 *14888:psum_in[7] 7.90936e-05
2 *14886:psum_out[7] 7.44601e-05
3 *592:9 0.00290287
4 *592:7 0.00289823
*RES
1 *14886:psum_out[7] *592:7 1.86429 
2 *592:7 *592:9 52.9664 
3 *592:9 *14888:psum_in[7] 1.86429 
*END

*D_NET *593 0.00595465
*CONN
*I *14888:psum_in[8] I *D processing_element
*I *14886:psum_out[8] O *D processing_element
*CAP
1 *14888:psum_in[8] 7.90936e-05
2 *14886:psum_out[8] 7.44601e-05
3 *593:9 0.00290287
4 *593:7 0.00289823
*RES
1 *14886:psum_out[8] *593:7 1.86429 
2 *593:7 *593:9 52.9664 
3 *593:9 *14888:psum_in[8] 1.86429 
*END

*D_NET *594 0.00595465
*CONN
*I *14888:psum_in[9] I *D processing_element
*I *14886:psum_out[9] O *D processing_element
*CAP
1 *14888:psum_in[9] 7.90936e-05
2 *14886:psum_out[9] 7.44601e-05
3 *594:9 0.00290287
4 *594:7 0.00289823
*RES
1 *14886:psum_out[9] *594:7 1.86429 
2 *594:7 *594:9 52.9664 
3 *594:9 *14888:psum_in[9] 1.86429 
*END

*D_NET *595 0.0239614
*CONN
*I *14886:valid_in I *D processing_element
*I *843:DIODE I *D sky130_fd_sc_hd__diode_2
*I *14885:valid_out O *D processing_element
*CAP
1 *14886:valid_in 0.000999155
2 *843:DIODE 0
3 *14885:valid_out 0.000559668
4 *595:15 0.00354194
5 *595:11 0.00620515
6 *595:9 0.00422204
7 *14886:act_in[0] *14886:valid_in 0
8 *14886:weight_in[15] *14886:valid_in 0
9 *234:11 *595:11 0.00843347
10 *241:11 *595:11 0
11 *362:16 *14886:valid_in 0
*RES
1 *14885:valid_out *595:9 10.1019 
2 *595:9 *595:11 121.458 
3 *595:11 *595:15 47.5421 
4 *595:15 *843:DIODE 23 
5 *595:15 *14886:valid_in 39.1962 
*END

*D_NET *596 0.0244812
*CONN
*I *14888:valid_in I *D processing_element
*I *897:DIODE I *D sky130_fd_sc_hd__diode_2
*I *14887:valid_out O *D processing_element
*CAP
1 *14888:valid_in 0.00102865
2 *897:DIODE 0
3 *14887:valid_out 0.000963763
4 *596:31 0.00109139
5 *596:27 0.000695457
6 *596:19 0.00534191
7 *596:17 0.00662708
8 *596:13 0.00288165
9 *275:19 *596:19 0.00388012
10 *361:10 *596:19 0
11 *364:24 *14888:valid_in 7.87027e-05
12 *365:18 *596:19 0
13 *365:18 *596:27 0.000947341
14 *369:18 *596:27 0.000945101
15 *458:20 *596:19 0
16 *458:75 *596:19 0
*RES
1 *14887:valid_out *596:13 28.1021 
2 *596:13 *596:17 40.3957 
3 *596:17 *596:19 107.196 
4 *596:19 *596:27 46.4264 
5 *596:27 *596:31 15.6214 
6 *596:31 *897:DIODE 23 
7 *596:31 *14888:valid_in 38.3041 
*END
